********************************************************************************
Probe Values Report, written on Wed Oct 23 17:07:21 2024

Source
-------

   ODB: C:/temp/quad-quad-025.odb
   Step: step-1
   Frame: Increment      1: Step Time =    1.000
   Variable: S, Mises (Avg: 75)

Probe values reported at nodes

  Part Instance     Node ID                     Orig. Coords                                       Def. Coords                   
                                    X                Y                Z                X                Y                Z       
-------------------------------------------------------------------------------------------------------------------------------
      OSSO-4         103          25.2539         -15.0587               0.          25.2559         -15.0603               0.
      OSSO-4         136          28.9005          7.19905               0.          28.9044          7.19728               0.
      OSSO-4         230          14.2395          43.8071               0.          14.2449           43.806               0.
      OSSO-4         403         -3.61857         -24.8145               0.         -3.61748          -24.814               0.


  Part Instance     Node ID  Attached elements         S, Mises
----------------------------------------------------------------
      OSSO-4         103             1278      215.003E-03
      OSSO-4         103             1327      215.003E-03
      OSSO-4         136             1119      178.939E-03
      OSSO-4         136            20920      178.939E-03
      OSSO-4         230             1962      105.825E-03
      OSSO-4         230             2094      105.825E-03
      OSSO-4         403             4512      89.4114E-03
      OSSO-4         403            21183      89.4114E-03


