********************************************************************************
Probe Values Report, written on Thu Oct 24 14:08:23 2024

Source
-------

   ODB: C:/temp/quad-quad-10.odb
   Step: step-1
   Frame: Increment      1: Step Time =    1.000
   Variable: S, Mises (Avg: 75)

Probe values reported at nodes

  Part Instance     Node ID            Orig. Coords                     Def. Coords          
                                 X          Y          Z          X          Y          Z    
-------------------------------------------------------------------------------------------
    ASSEMBLY           1        -6.        42.        0.0        -6.        42.        0.0
    ASSEMBLY           2        30.        37.        0.0        30.        37.        0.0
    ASSEMBLY           3         7.        18.        0.0         7.        18.        0.0
      OSSO-4           1        -4.       -42.        0.0        -4.       -42.        0.0
      OSSO-4           2        22.       -42.        0.0        22.       -42.        0.0
      OSSO-4           3        25.       -15.        0.0        25.       -15.        0.0
      OSSO-4           4        29.         7.        0.0        29.         7.        0.0
      OSSO-4           5        31.        18.        0.0        31.        18.        0.0
      OSSO-4           6        33.        29.        0.0        33.        29.        0.0
      OSSO-4           7        32.        34.        0.0        32.        34.        0.0
      OSSO-4           8        28.        38.        0.0        28.        38.        0.0
      OSSO-4           9        21.        41.        0.0        21.        41.        0.0
      OSSO-4          10        14.        44.        0.0        14.        44.        0.0
      OSSO-4          11         5.        45.        0.0         5.        45.        0.0
      OSSO-4          12        -4.        43.        0.0        -4.        43.        0.0
      OSSO-4          13        -8.        41.        0.0        -8.        41.        0.0
      OSSO-4          14       -15.        34.        0.0       -15.        34.        0.0
      OSSO-4          15       -18.        26.        0.0       -18.        26.        0.0
      OSSO-4          16       -19.        17.        0.0       -19.        17.        0.0
      OSSO-4          17       -17.         8.        0.0       -17.         8.        0.0
      OSSO-4          18       -14.         4.        0.0       -14.         4.        0.0
      OSSO-4          19       -10.         2.        0.0       -10.         2.        0.0
      OSSO-4          20        -7.        -1.        0.0        -7.        -1.        0.0
      OSSO-4          21        -6.        -4.        0.0        -6.        -4.        0.0
      OSSO-4          22        -6.        -7.        0.0        -6.        -7.        0.0
      OSSO-4          23        -4.       -14.        0.0        -4.       -14.        0.0
      OSSO-4          24        -4.       -25.        0.0        -4.       -25.        0.0
      OSSO-4          25         5.       -42.        0.0         5.       -42.        0.0
      OSSO-4          26        14.       -42.        0.0        14.       -42.        0.0
      OSSO-4          27        23.       -33.        0.0        23.       -33.        0.0
      OSSO-4          28        24.       -24.        0.0        24.       -24.        0.0
      OSSO-4          29        27.        -4.        0.0        27.        -4.        0.0
      OSSO-4          30        -4.       -34.        0.0        -4.       -34.        0.0
      OSSO-4          31        -3.         1.        0.0        -3.         1.        0.0
      OSSO-4          32         2.        -6.        0.0         2.        -6.        0.0
      OSSO-4          33        -4.         5.        0.0        -4.         5.        0.0
      OSSO-4          34        -3.        33.        0.0        -3.        33.        0.0
      OSSO-4          35        -8.         9.        0.0        -8.         9.        0.0
      OSSO-4          36  -345.E-03         3.        0.0  -341.E-03         3.        0.0
      OSSO-4          37         2.         1.        0.0         2.         1.        0.0
      OSSO-4          38        17.        37.        0.0        17.        37.        0.0
      OSSO-4          39        21.        34.        0.0        21.        34.        0.0
      OSSO-4          40         8.         5.        0.0         8.         5.        0.0
      OSSO-4          41         6.  -850.E-03        0.0         6.  -850.E-03        0.0
      OSSO-4          42        24.        31.        0.0        24.        31.        0.0
      OSSO-4          43        19.        28.        0.0        19.        28.        0.0
      OSSO-4          44        11.        34.        0.0        11.        34.        0.0
      OSSO-4          45         4.         5.        0.0         4.         5.        0.0
      OSSO-4          46        15.        31.        0.0        15.        31.        0.0
      OSSO-4          47  -224.E-03         6.        0.0  -221.E-03         6.        0.0
      OSSO-4          48         5.       -33.        0.0         5.       -33.        0.0
      OSSO-4          49       -14.        17.        0.0       -14.        17.        0.0
      OSSO-4          50       -12.        23.        0.0       -12.        23.        0.0
      OSSO-4          51        16.       -14.        0.0        16.       -14.        0.0
      OSSO-4          52        15.       -24.        0.0        15.       -24.        0.0
      OSSO-4          53   529.E-03        10.        0.0   533.E-03        10.        0.0
      OSSO-4          54         7.        11.        0.0         7.        11.        0.0
      OSSO-4          55         6.        31.        0.0         6.        31.        0.0
      OSSO-4          56        11.        -3.        0.0        11.        -3.        0.0
      OSSO-4          57        13.         5.        0.0        13.         5.        0.0
      OSSO-4          58        13.        12.        0.0        13.        12.        0.0
      OSSO-4          59        -8.        13.        0.0        -8.        13.        0.0
      OSSO-4          60        21.         6.        0.0        21.         6.        0.0
      OSSO-4          61         6.       -12.        0.0         6.       -12.        0.0
      OSSO-4          62         1.        29.        0.0         1.        29.        0.0
      OSSO-4          63        19.        25.        0.0        19.        25.        0.0
      OSSO-4          64        10.        25.        0.0        10.        25.        0.0
      OSSO-4          65        -8.        29.        0.0        -8.        29.        0.0
      OSSO-4          66        -6.        19.        0.0        -6.        19.        0.0
      OSSO-4          67        11.        18.        0.0        11.        18.        0.0
      OSSO-4          68         6.       -24.        0.0         6.       -24.        0.0
      OSSO-4          69         3.        16.        0.0         3.        16.        0.0
      OSSO-4          70        19.        19.        0.0        19.        19.        0.0
      OSSO-4          71   150.E-03        23.        0.0   155.E-03        23.        0.0
      OSSO-4          72        21.        14.        0.0        21.        14.        0.0
      OSSO-4          73        14.       -33.        0.0        14.       -33.        0.0
      OSSO-4          74        -1.        -2.        0.0        -1.        -2.        0.0
      OSSO-4          75        19.        -4.        0.0        19.        -4.        0.0
      OSSO-4          76        -4.        10.        0.0        -4.        10.        0.0
      OSSO-4          77       -12.        10.        0.0       -12.        10.        0.0
      OSSO-4          78       -14.        11.        0.0       -14.        11.        0.0
      OSSO-4          79         2.        36.        0.0         2.        36.        0.0
      OSSO-4          80         8.        39.        0.0         8.        39.        0.0
      OSSO-4          81        13.        40.        0.0        13.        40.        0.0
      OSSO-4          82        26.        26.        0.0        26.        26.        0.0
      OSSO-4          83        26.        21.        0.0        26.        21.        0.0
      OSSO-4          84       -10.        15.        0.0       -10.        15.        0.0
      OSSO-4          85        -4.        15.        0.0        -4.        15.        0.0
      OSSO-4          86         4.         9.        0.0         4.         9.        0.0
      OSSO-4          87        14.       -38.        0.0        14.       -38.        0.0
      OSSO-4          88        10.       -33.        0.0        10.       -33.        0.0
      OSSO-4          89         5.       -38.        0.0         5.       -38.        0.0
      OSSO-4          90         9.       -42.        0.0         9.       -42.        0.0
      OSSO-4          91   918.E-03       -33.        0.0   918.E-03       -33.        0.0
      OSSO-4          92        -4.       -38.        0.0        -4.       -38.        0.0
      OSSO-4          93   625.E-03       -42.        0.0   625.E-03       -42.        0.0
      OSSO-4          94   172.E-03        -4.        0.0   175.E-03        -4.        0.0
      OSSO-4          95         4.        -3.        0.0         4.        -3.        0.0
      OSSO-4          96         4.   245.E-03        0.0         4.   245.E-03        0.0
      OSSO-4          97   480.E-03  -253.E-03        0.0   483.E-03  -253.E-03        0.0
      OSSO-4          98         1.       -24.        0.0         1.       -24.        0.0
      OSSO-4          99         6.       -18.        0.0         6.       -18.        0.0
      OSSO-4         100         1.       -13.        0.0         1.       -13.        0.0
      OSSO-4         101        -4.       -19.        0.0        -4.       -19.        0.0
      OSSO-4         102   898.E-03         2.        0.0   902.E-03         2.        0.0
      OSSO-4         103        -2.         2.        0.0        -2.         2.        0.0
      OSSO-4         104        -2.  -296.E-03        0.0        -2.  -296.E-03        0.0
      OSSO-4         105        -2.        -6.        0.0        -2.        -6.        0.0
      OSSO-4         106        -5.       -11.        0.0        -5.       -11.        0.0
      OSSO-4         107         4.        -9.        0.0         4.        -9.        0.0
      OSSO-4         108        -5.    -4.E-03        0.0        -5.    -4.E-03        0.0
      OSSO-4         109        -7.        -3.        0.0        -7.        -3.        0.0
      OSSO-4         110        -3.        -3.        0.0        -3.        -3.        0.0
      OSSO-4         111        -4.         3.        0.0        -4.         3.        0.0
      OSSO-4         112        -7.         3.        0.0        -7.         3.        0.0
      OSSO-4         113        -8.   551.E-03        0.0        -8.   552.E-03        0.0
      OSSO-4         114         6.         5.        0.0         6.         5.        0.0
      OSSO-4         115         7.         8.        0.0         7.         8.        0.0
      OSSO-4         116         5.        10.        0.0         5.        10.        0.0
      OSSO-4         117         4.         7.        0.0         4.         7.        0.0
      OSSO-4         118         6.        42.        0.0         6.        42.        0.0
      OSSO-4         119        10.        40.        0.0        10.        40.        0.0
      OSSO-4         120        14.        42.        0.0        14.        42.        0.0
      OSSO-4         121        10.        45.        0.0        10.        45.        0.0
      OSSO-4         122        15.        39.        0.0        15.        39.        0.0
      OSSO-4         123        19.        39.        0.0        19.        39.        0.0
      OSSO-4         124        18.        43.        0.0        18.        43.        0.0
      OSSO-4         125         3.         3.        0.0         3.         3.        0.0
      OSSO-4         126         2.         6.        0.0         2.         6.        0.0
      OSSO-4         127  -285.E-03         4.        0.0  -281.E-03         4.        0.0
      OSSO-4         128       -12.        38.        0.0       -12.        38.        0.0
      OSSO-4         129       -11.        32.        0.0       -11.        32.        0.0
      OSSO-4         130        -5.        31.        0.0        -5.        31.        0.0
      OSSO-4         131        -6.        37.        0.0        -6.        37.        0.0
      OSSO-4         132       -15.        25.        0.0       -15.        25.        0.0
      OSSO-4         133       -10.        26.        0.0       -10.        26.        0.0
      OSSO-4         134       -17.        30.        0.0       -17.        30.        0.0
      OSSO-4         135        -2.         5.        0.0        -2.         5.        0.0
      OSSO-4         136       -11.        12.        0.0       -11.        12.        0.0
      OSSO-4         137       -10.         9.        0.0       -10.         9.        0.0
      OSSO-4         138        -8.        11.        0.0        -8.        11.        0.0
      OSSO-4         139        -9.        14.        0.0        -9.        14.        0.0
      OSSO-4         140       -12.         3.        0.0       -12.         3.        0.0
      OSSO-4         141        -9.         5.        0.0        -9.         5.        0.0
      OSSO-4         142       -13.         7.        0.0       -13.         7.        0.0
      OSSO-4         143        -4.         7.        0.0        -4.         7.        0.0
      OSSO-4         144        -6.         9.        0.0        -6.         9.        0.0
      OSSO-4         145        19.        36.        0.0        19.        36.        0.0
      OSSO-4         146        24.        36.        0.0        24.        36.        0.0
      OSSO-4         147        24.        40.        0.0        24.        40.        0.0
      OSSO-4         148        22.        29.        0.0        22.        29.        0.0
      OSSO-4         149        23.        32.        0.0        23.        32.        0.0
      OSSO-4         150        18.        32.        0.0        18.        32.        0.0
      OSSO-4         151        17.        29.        0.0        17.        29.        0.0
      OSSO-4         152        28.        32.        0.0        28.        32.        0.0
      OSSO-4         153        30.        37.        0.0        30.        37.        0.0
      OSSO-4         154        20.       -24.        0.0        20.       -24.        0.0
      OSSO-4         155        25.       -20.        0.0        25.       -20.        0.0
      OSSO-4         156        21.       -15.        0.0        21.       -15.        0.0
      OSSO-4         157        16.       -19.        0.0        16.       -19.        0.0
      OSSO-4         158        23.       -38.        0.0        23.       -38.        0.0
      OSSO-4         159        19.       -33.        0.0        19.       -33.        0.0
      OSSO-4         160        18.       -42.        0.0        18.       -42.        0.0
      OSSO-4         161        11.       -13.        0.0        11.       -13.        0.0
      OSSO-4         162        10.       -24.        0.0        10.       -24.        0.0
      OSSO-4         163         9.        -2.        0.0         9.        -2.        0.0
      OSSO-4         164        12.   884.E-03        0.0        12.   884.E-03        0.0
      OSSO-4         165        11.         5.        0.0        11.         5.        0.0
      OSSO-4         166         7.         2.        0.0         7.         2.        0.0
      OSSO-4         167        -6.        -5.        0.0        -6.        -5.        0.0
      OSSO-4         168   667.E-03        26.        0.0   672.E-03        26.        0.0
      OSSO-4         169         5.        24.        0.0         5.        24.        0.0
      OSSO-4         170         8.        28.        0.0         8.        28.        0.0
      OSSO-4         171         4.        30.        0.0         4.        30.        0.0
      OSSO-4         172         6.       -28.        0.0         6.       -28.        0.0
      OSSO-4         173        -4.       -29.        0.0        -4.       -29.        0.0
      OSSO-4         174       -19.        13.        0.0       -19.        13.        0.0
      OSSO-4         175       -16.        10.        0.0       -16.        10.        0.0
      OSSO-4         176       -14.        14.        0.0       -14.        14.        0.0
      OSSO-4         177       -17.        17.        0.0       -17.        17.        0.0
      OSSO-4         178  -870.E-03        35.        0.0  -865.E-03        35.        0.0
      OSSO-4         179        -1.        31.        0.0        -1.        31.        0.0
      OSSO-4         180         4.        34.        0.0         4.        34.        0.0
      OSSO-4         181        -6.        42.        0.0        -6.        42.        0.0
      OSSO-4         182        -1.        40.        0.0        -1.        40.        0.0
      OSSO-4         183       -13.        10.        0.0       -13.        10.        0.0
      OSSO-4         184       -12.        16.        0.0       -12.        16.        0.0
      OSSO-4         185        13.         9.        0.0        13.         9.        0.0
      OSSO-4         186        10.        12.        0.0        10.        12.        0.0
      OSSO-4         187        14.        36.        0.0        14.        36.        0.0
      OSSO-4         188        13.        32.        0.0        13.        32.        0.0
      OSSO-4         189        15.        25.        0.0        15.        25.        0.0
      OSSO-4         190        11.        22.        0.0        11.        22.        0.0
      OSSO-4         191        15.        19.        0.0        15.        19.        0.0
      OSSO-4         192        19.        22.        0.0        19.        22.        0.0
      OSSO-4         193        22.        20.        0.0        22.        20.        0.0
      OSSO-4         194        20.        17.        0.0        20.        17.        0.0
      OSSO-4         195        26.        16.        0.0        26.        16.        0.0
      OSSO-4         196        28.        20.        0.0        28.        20.        0.0
      OSSO-4         197        26.        -9.        0.0        26.        -9.        0.0
      OSSO-4         198        23.        -4.        0.0        23.        -4.        0.0
      OSSO-4         199        18.        -9.        0.0        18.        -9.        0.0
      OSSO-4         200        19.        26.        0.0        19.        26.        0.0
      OSSO-4         201        22.        25.        0.0        22.        25.        0.0
      OSSO-4         202        25.        28.        0.0        25.        28.        0.0
      OSSO-4         203        33.        32.        0.0        33.        32.        0.0
      OSSO-4         204        29.        28.        0.0        29.        28.        0.0
      OSSO-4         205         5.        38.        0.0         5.        38.        0.0
      OSSO-4         206         9.        33.        0.0         9.        33.        0.0
      OSSO-4         207         9.        37.        0.0         9.        37.        0.0
      OSSO-4         208        -6.        14.        0.0        -6.        14.        0.0
      OSSO-4         209        -5.        17.        0.0        -5.        17.        0.0
      OSSO-4         210        -8.        17.        0.0        -8.        17.        0.0
      OSSO-4         211        -9.        21.        0.0        -9.        21.        0.0
      OSSO-4         212       -13.        20.        0.0       -13.        20.        0.0
      OSSO-4         213         2.        20.        0.0         2.        20.        0.0
      OSSO-4         214         7.        17.        0.0         7.        17.        0.0
      OSSO-4         215   152.E-03         8.        0.0   156.E-03         8.        0.0
      OSSO-4         216        -2.        10.        0.0        -2.        10.        0.0
      OSSO-4         217        15.       -28.        0.0        15.       -28.        0.0
      OSSO-4         218        24.       -29.        0.0        24.       -29.        0.0
      OSSO-4         219       -19.        22.        0.0       -19.        22.        0.0
      OSSO-4         220        -4.        12.        0.0        -4.        12.        0.0
      OSSO-4         221        -4.        26.        0.0        -4.        26.        0.0
      OSSO-4         222         9.        -8.        0.0         9.        -8.        0.0
      OSSO-4         223        21.        10.        0.0        21.        10.        0.0
      OSSO-4         224        25.         6.        0.0        25.         6.        0.0
      OSSO-4         225        30.        13.        0.0        30.        13.        0.0
      OSSO-4         226         2.         9.        0.0         2.         9.        0.0
      OSSO-4         227         5.        13.        0.0         5.        13.        0.0
      OSSO-4         228         2.        13.        0.0         2.        13.        0.0
      OSSO-4         229        13.        28.        0.0        13.        28.        0.0
      OSSO-4         230        20.   787.E-03        0.0        20.   786.E-03        0.0
      OSSO-4         231        17.         5.        0.0        17.         5.        0.0
      OSSO-4         232        15.        -4.        0.0        15.        -4.        0.0
      OSSO-4         233        17.        13.        0.0        17.        13.        0.0
      OSSO-4         234        12.        15.        0.0        12.        15.        0.0
      OSSO-4         235        28.         2.        0.0        28.         2.        0.0
      OSSO-4         236        -3.        21.        0.0        -3.        21.        0.0
      OSSO-4         237        26.        24.        0.0        26.        24.        0.0
      OSSO-4         238  -363.E-03        15.        0.0  -359.E-03        15.        0.0
      OSSO-4         239       -16.         6.        0.0       -16.         6.        0.0
      OSSO-4         240   667.E-03        44.        0.0   673.E-03        44.        0.0
      OSSO-4         241        32.        23.        0.0        32.        23.        0.0


  Part Instance     Node ID  Attached elements   S, Mises
----------------------------------------------------------
    ASSEMBLY           1          1    NoValue
    ASSEMBLY           2          2    NoValue
    ASSEMBLY           3          3    NoValue
    ASSEMBLY           3          4    NoValue
      OSSO-4           1          2   872.E-03
      OSSO-4           2         23         2.
      OSSO-4           3         22   223.E-03
      OSSO-4           3         38   223.E-03
      OSSO-4           4         52   178.E-03
      OSSO-4           4         58   178.E-03
      OSSO-4           5         37   245.E-03
      OSSO-4           5         52   245.E-03
      OSSO-4           5         67   245.E-03
      OSSO-4           6         40   285.E-03
      OSSO-4           6         67   285.E-03
      OSSO-4           7         21   896.E-03
      OSSO-4           7         40   896.E-03
      OSSO-4           8         19   381.E-03
      OSSO-4           8         21   381.E-03
      OSSO-4           9         11   103.E-03
      OSSO-4           9         19   103.E-03
      OSSO-4          10         10   144.E-03
      OSSO-4          10         11   144.E-03
      OSSO-4          11         10   305.E-03
      OSSO-4          11         65   305.E-03
      OSSO-4          12         31   840.E-03
      OSSO-4          12         65   840.E-03
      OSSO-4          13         13         2.
      OSSO-4          13         31         2.
      OSSO-4          14         13   432.E-03
      OSSO-4          14         14   432.E-03
      OSSO-4          15         14   156.E-03
      OSSO-4          15         47   156.E-03
      OSSO-4          16         29   142.E-03
      OSSO-4          16         47   142.E-03
      OSSO-4          17         29    81.E-03
      OSSO-4          17         64    81.E-03
      OSSO-4          18         17   108.E-03
      OSSO-4          18         64   108.E-03
      OSSO-4          19          8   540.E-03
      OSSO-4          19         17   540.E-03
      OSSO-4          19         18   540.E-03
      OSSO-4          20          7   752.E-03
      OSSO-4          20          8   752.E-03
      OSSO-4          21          7   917.E-03
      OSSO-4          21         26   917.E-03
      OSSO-4          22          6   587.E-03
      OSSO-4          22         26   587.E-03
      OSSO-4          23          4   389.E-03
      OSSO-4          23          6   389.E-03
      OSSO-4          24          4    85.E-03
      OSSO-4          24         28    85.E-03
      OSSO-4          25          1   219.E-03
      OSSO-4          25          2   219.E-03
      OSSO-4          26          1   443.E-03
      OSSO-4          26         23   443.E-03
      OSSO-4          27         23   997.E-03
      OSSO-4          27         46   997.E-03
      OSSO-4          28         22   532.E-03
      OSSO-4          28         46   532.E-03
      OSSO-4          29         38    49.E-03
      OSSO-4          29         58    49.E-03
      OSSO-4          30          2   486.E-03
      OSSO-4          30         28   486.E-03
      OSSO-4          31          5   446.E-03
      OSSO-4          31          7   446.E-03
      OSSO-4          31          8   446.E-03
      OSSO-4          31         15   446.E-03
      OSSO-4          32          3   448.E-03
      OSSO-4          32          6   448.E-03
      OSSO-4          32         26   448.E-03
      OSSO-4          32         50   448.E-03
      OSSO-4          33          8   449.E-03
      OSSO-4          33         15   449.E-03
      OSSO-4          33         18   449.E-03
      OSSO-4          33         45   449.E-03
      OSSO-4          34         13         1.
      OSSO-4          34         30         1.
      OSSO-4          34         31         1.
      OSSO-4          34         49         1.
      OSSO-4          35         16   422.E-03
      OSSO-4          35         17   422.E-03
      OSSO-4          35         18   422.E-03
      OSSO-4          35         48   422.E-03
      OSSO-4          36          5   377.E-03
      OSSO-4          36         12   377.E-03
      OSSO-4          36         15   377.E-03
      OSSO-4          37          3   354.E-03
      OSSO-4          37          5   354.E-03
      OSSO-4          37         12   354.E-03
      OSSO-4          37         33   354.E-03
      OSSO-4          38         11    89.E-03
      OSSO-4          38         19    89.E-03
      OSSO-4          38         35    89.E-03
      OSSO-4          38         66    89.E-03
      OSSO-4          39         19   205.E-03
      OSSO-4          39         20   205.E-03
      OSSO-4          39         21   205.E-03
      OSSO-4          39         35   205.E-03
      OSSO-4          40          9   296.E-03
      OSSO-4          40         25   296.E-03
      OSSO-4          40         33   296.E-03
      OSSO-4          40         34   296.E-03
      OSSO-4          41          3   328.E-03
      OSSO-4          41         25   328.E-03
      OSSO-4          41         33   328.E-03
      OSSO-4          41         50   328.E-03
      OSSO-4          42         20   306.E-03
      OSSO-4          42         21   306.E-03
      OSSO-4          42         39   306.E-03
      OSSO-4          42         40   306.E-03
      OSSO-4          43         20   151.E-03
      OSSO-4          43         39   151.E-03
      OSSO-4          43         70   151.E-03
      OSSO-4          44         35    76.E-03
      OSSO-4          44         41    76.E-03
      OSSO-4          44         54    76.E-03
      OSSO-4          44         66    76.E-03
      OSSO-4          45          9   344.E-03
      OSSO-4          45         12   344.E-03
      OSSO-4          45         33   344.E-03
      OSSO-4          45         69   344.E-03
      OSSO-4          46         20   170.E-03
      OSSO-4          46         35   170.E-03
      OSSO-4          46         54   170.E-03
      OSSO-4          46         70   170.E-03
      OSSO-4          47         12   389.E-03
      OSSO-4          47         15   389.E-03
      OSSO-4          47         45   389.E-03
      OSSO-4          47         69   389.E-03
      OSSO-4          48          1   482.E-03
      OSSO-4          48          2   482.E-03
      OSSO-4          48         28   482.E-03
      OSSO-4          48         51   482.E-03
      OSSO-4          49         29   250.E-03
      OSSO-4          49         32   250.E-03
      OSSO-4          49         43   250.E-03
      OSSO-4          49         47   250.E-03
      OSSO-4          50         14   391.E-03
      OSSO-4          50         43   391.E-03
      OSSO-4          50         47   391.E-03
      OSSO-4          50         60   391.E-03
      OSSO-4          51         22   404.E-03
      OSSO-4          51         24   404.E-03
      OSSO-4          51         38   404.E-03
      OSSO-4          51         59   404.E-03
      OSSO-4          52         22   578.E-03
      OSSO-4          52         24   578.E-03
      OSSO-4          52         46   578.E-03
      OSSO-4          52         51   578.E-03
      OSSO-4          53         45   414.E-03
      OSSO-4          53         53   414.E-03
      OSSO-4          53         68   414.E-03
      OSSO-4          53         69   414.E-03
      OSSO-4          54          9   328.E-03
      OSSO-4          54         34   328.E-03
      OSSO-4          54         53   328.E-03
      OSSO-4          54         62   328.E-03
      OSSO-4          55         27   361.E-03
      OSSO-4          55         30   361.E-03
      OSSO-4          55         41   361.E-03
      OSSO-4          55         54   361.E-03
      OSSO-4          56         25   320.E-03
      OSSO-4          56         50   320.E-03
      OSSO-4          56         55   320.E-03
      OSSO-4          56         59   320.E-03
      OSSO-4          57         25   233.E-03
      OSSO-4          57         34   233.E-03
      OSSO-4          57         55   233.E-03
      OSSO-4          57         56   233.E-03
      OSSO-4          58         34   241.E-03
      OSSO-4          58         56   241.E-03
      OSSO-4          58         57   241.E-03
      OSSO-4          58         62   241.E-03
      OSSO-4          59         16   410.E-03
      OSSO-4          59         42   410.E-03
      OSSO-4          59         48   410.E-03
      OSSO-4          60         52   125.E-03
      OSSO-4          60         55   125.E-03
      OSSO-4          60         56   125.E-03
      OSSO-4          60         58   125.E-03
      OSSO-4          61          4   459.E-03
      OSSO-4          61          6   459.E-03
      OSSO-4          61         24   459.E-03
      OSSO-4          61         50   459.E-03
      OSSO-4          61         59   459.E-03
      OSSO-4          62         27   484.E-03
      OSSO-4          62         30   484.E-03
      OSSO-4          62         49   484.E-03
      OSSO-4          63         36   203.E-03
      OSSO-4          63         39   203.E-03
      OSSO-4          63         61   203.E-03
      OSSO-4          63         70   203.E-03
      OSSO-4          64         27   287.E-03
      OSSO-4          64         36   287.E-03
      OSSO-4          64         44   287.E-03
      OSSO-4          64         54   287.E-03
      OSSO-4          64         70   287.E-03
      OSSO-4          65         13   745.E-03
      OSSO-4          65         14   745.E-03
      OSSO-4          65         49   745.E-03
      OSSO-4          65         60   745.E-03
      OSSO-4          66         42   466.E-03
      OSSO-4          66         43   466.E-03
      OSSO-4          66         60   466.E-03
      OSSO-4          66         63   466.E-03
      OSSO-4          67         36   289.E-03
      OSSO-4          67         44   289.E-03
      OSSO-4          67         57   289.E-03
      OSSO-4          67         62   289.E-03
      OSSO-4          68          4   492.E-03
      OSSO-4          68         24   492.E-03
      OSSO-4          68         28   492.E-03
      OSSO-4          68         51   492.E-03
      OSSO-4          69         44   418.E-03
      OSSO-4          69         53   418.E-03
      OSSO-4          69         62   418.E-03
      OSSO-4          69         63   418.E-03
      OSSO-4          69         68   418.E-03
      OSSO-4          70         36   174.E-03
      OSSO-4          70         37   174.E-03
      OSSO-4          70         57   174.E-03
      OSSO-4          70         61   174.E-03
      OSSO-4          71         27   539.E-03
      OSSO-4          71         44   539.E-03
      OSSO-4          71         49   539.E-03
      OSSO-4          71         60   539.E-03
      OSSO-4          71         63   539.E-03
      OSSO-4          72         37   139.E-03
      OSSO-4          72         52   139.E-03
      OSSO-4          72         56   139.E-03
      OSSO-4          72         57   139.E-03
      OSSO-4          73          1   735.E-03
      OSSO-4          73         23   735.E-03
      OSSO-4          73         46   735.E-03
      OSSO-4          73         51   735.E-03
      OSSO-4          74          3   368.E-03
      OSSO-4          74          5   368.E-03
      OSSO-4          74          7   368.E-03
      OSSO-4          74         26   368.E-03
      OSSO-4          75         38   211.E-03
      OSSO-4          75         55   211.E-03
      OSSO-4          75         58   211.E-03
      OSSO-4          75         59   211.E-03
      OSSO-4          76         18   437.E-03
      OSSO-4          76         45   437.E-03
      OSSO-4          76         48   437.E-03
      OSSO-4          76         68   437.E-03
      OSSO-4          77         16   332.E-03
      OSSO-4          77         17   332.E-03
      OSSO-4          77         32   332.E-03
      OSSO-4          77         64   332.E-03
      OSSO-4          78         29   229.E-03
      OSSO-4          78         32   229.E-03
      OSSO-4          78         64   229.E-03
      OSSO-4          79         30   640.E-03
      OSSO-4          79         31   640.E-03
      OSSO-4          79         41   640.E-03
      OSSO-4          79         65   640.E-03
      OSSO-4          80         10   195.E-03
      OSSO-4          80         41   195.E-03
      OSSO-4          80         65   195.E-03
      OSSO-4          80         66   195.E-03
      OSSO-4          81         10    83.E-03
      OSSO-4          81         11    83.E-03
      OSSO-4          81         66    83.E-03
      OSSO-4          82         39   323.E-03
      OSSO-4          82         40   323.E-03
      OSSO-4          82         61   323.E-03
      OSSO-4          82         67   323.E-03
      OSSO-4          83         37   221.E-03
      OSSO-4          83         61   221.E-03
      OSSO-4          83         67   221.E-03
      OSSO-4          84         16   376.E-03
      OSSO-4          84         32   376.E-03
      OSSO-4          84         42   376.E-03
      OSSO-4          84         43   376.E-03
      OSSO-4          85         42   468.E-03
      OSSO-4          85         48   468.E-03
      OSSO-4          85         63   468.E-03
      OSSO-4          85         68   468.E-03
      OSSO-4          86          9   362.E-03
      OSSO-4          86         53   362.E-03
      OSSO-4          86         69   362.E-03
      OSSO-4          87          1   607.E-03
      OSSO-4          87         23   607.E-03
      OSSO-4          88          1   540.E-03
      OSSO-4          88         51   540.E-03
      OSSO-4          89          1   351.E-03
      OSSO-4          89          2   351.E-03
      OSSO-4          90          1   326.E-03
      OSSO-4          91          2   317.E-03
      OSSO-4          91         28   317.E-03
      OSSO-4          92          2   658.E-03
      OSSO-4          93          2   454.E-03
      OSSO-4          94          3   401.E-03
      OSSO-4          94         26   401.E-03
      OSSO-4          95          3   386.E-03
      OSSO-4          95         50   386.E-03
      OSSO-4          96          3   338.E-03
      OSSO-4          96         33   338.E-03
      OSSO-4          97          3   374.E-03
      OSSO-4          97          5   374.E-03
      OSSO-4          98          4   256.E-03
      OSSO-4          98         28   256.E-03
      OSSO-4          99          4   479.E-03
      OSSO-4          99         24   479.E-03
      OSSO-4         100          4   399.E-03
      OSSO-4         100          6   399.E-03
      OSSO-4         101          4   169.E-03
      OSSO-4         102          5   364.E-03
      OSSO-4         102         12   364.E-03
      OSSO-4         103          5   424.E-03
      OSSO-4         103         15   424.E-03
      OSSO-4         104          5   420.E-03
      OSSO-4         104          7   420.E-03
      OSSO-4         105          6   482.E-03
      OSSO-4         105         26   482.E-03
      OSSO-4         106          6   484.E-03
      OSSO-4         107          6   444.E-03
      OSSO-4         107         50   444.E-03
      OSSO-4         108          7   579.E-03
      OSSO-4         108          8   579.E-03
      OSSO-4         109          7   798.E-03
      OSSO-4         110          7   627.E-03
      OSSO-4         110         26   627.E-03
      OSSO-4         111          8   424.E-03
      OSSO-4         111         15   424.E-03
      OSSO-4         112          8   455.E-03
      OSSO-4         112         18   455.E-03
      OSSO-4         113          8   713.E-03
      OSSO-4         114          9   319.E-03
      OSSO-4         114         33   319.E-03
      OSSO-4         115          9   312.E-03
      OSSO-4         115         34   312.E-03
      OSSO-4         116          9   344.E-03
      OSSO-4         116         53   344.E-03
      OSSO-4         117          9   353.E-03
      OSSO-4         117         69   353.E-03
      OSSO-4         118         10   176.E-03
      OSSO-4         118         65   176.E-03
      OSSO-4         119         10    96.E-03
      OSSO-4         119         66    96.E-03
      OSSO-4         120         10   103.E-03
      OSSO-4         120         11   103.E-03
      OSSO-4         121         10    92.E-03
      OSSO-4         122         11    66.E-03
      OSSO-4         122         66    66.E-03
      OSSO-4         123         11    97.E-03
      OSSO-4         123         19    97.E-03
      OSSO-4         124         11   135.E-03
      OSSO-4         125         12   345.E-03
      OSSO-4         125         33   345.E-03
      OSSO-4         126         12   366.E-03
      OSSO-4         126         69   366.E-03
      OSSO-4         127         12   386.E-03
      OSSO-4         127         15   386.E-03
      OSSO-4         128         13   823.E-03
      OSSO-4         129         13   395.E-03
      OSSO-4         129         14   395.E-03
      OSSO-4         130         13   829.E-03
      OSSO-4         130         49   829.E-03
      OSSO-4         131         13         1.
      OSSO-4         131         31         1.
      OSSO-4         132         14   264.E-03
      OSSO-4         132         47   264.E-03
      OSSO-4         133         14   519.E-03
      OSSO-4         133         60   519.E-03
      OSSO-4         134         14   239.E-03
      OSSO-4         135         15   420.E-03
      OSSO-4         135         45   420.E-03
      OSSO-4         136         16   337.E-03
      OSSO-4         136         32   337.E-03
      OSSO-4         137         16   377.E-03
      OSSO-4         137         17   377.E-03
      OSSO-4         138         16   411.E-03
      OSSO-4         138         48   411.E-03
      OSSO-4         139         16   391.E-03
      OSSO-4         139         42   391.E-03
      OSSO-4         140         17   281.E-03
      OSSO-4         141         17   419.E-03
      OSSO-4         141         18   419.E-03
      OSSO-4         142         17   199.E-03
      OSSO-4         142         64   199.E-03
      OSSO-4         143         18   450.E-03
      OSSO-4         143         45   450.E-03
      OSSO-4         144         18   440.E-03
      OSSO-4         144         48   440.E-03
      OSSO-4         145         19   146.E-03
      OSSO-4         145         35   146.E-03
      OSSO-4         146         19   283.E-03
      OSSO-4         146         21   283.E-03
      OSSO-4         147         19    77.E-03
      OSSO-4         148         20   228.E-03
      OSSO-4         148         39   228.E-03
      OSSO-4         149         20   256.E-03
      OSSO-4         149         21   256.E-03
      OSSO-4         150         20   119.E-03
      OSSO-4         150         35   119.E-03
      OSSO-4         151         20   151.E-03
      OSSO-4         151         70   151.E-03
      OSSO-4         152         21   548.E-03
      OSSO-4         152         40   548.E-03
      OSSO-4         153         21   458.E-03
      OSSO-4         154         22   509.E-03
      OSSO-4         154         46   509.E-03
      OSSO-4         155         22   379.E-03
      OSSO-4         156         22   283.E-03
      OSSO-4         156         38   283.E-03
      OSSO-4         157         22   484.E-03
      OSSO-4         157         24   484.E-03
      OSSO-4         158         23         1.
      OSSO-4         159         23   770.E-03
      OSSO-4         159         46   770.E-03
      OSSO-4         160         23         1.
      OSSO-4         161         24   430.E-03
      OSSO-4         161         59   430.E-03
      OSSO-4         162         24   522.E-03
      OSSO-4         162         51   522.E-03
      OSSO-4         163         25   324.E-03
      OSSO-4         163         50   324.E-03
      OSSO-4         164         25   272.E-03
      OSSO-4         164         55   272.E-03
      OSSO-4         165         25   264.E-03
      OSSO-4         165         34   264.E-03
      OSSO-4         166         25   313.E-03
      OSSO-4         166         33   313.E-03
      OSSO-4         167         26   755.E-03
      OSSO-4         168         27   513.E-03
      OSSO-4         168         49   513.E-03
      OSSO-4         169         27   398.E-03
      OSSO-4         169         44   398.E-03
      OSSO-4         170         27   318.E-03
      OSSO-4         170         54   318.E-03
      OSSO-4         171         27   413.E-03
      OSSO-4         171         30   413.E-03
      OSSO-4         172         28   482.E-03
      OSSO-4         172         51   482.E-03
      OSSO-4         173         28   281.E-03
      OSSO-4         174         29   109.E-03
      OSSO-4         175         29   155.E-03
      OSSO-4         175         64   155.E-03
      OSSO-4         176         29   236.E-03
      OSSO-4         176         32   236.E-03
      OSSO-4         177         29   195.E-03
      OSSO-4         177         47   195.E-03
      OSSO-4         178         30   875.E-03
      OSSO-4         178         31   875.E-03
      OSSO-4         179         30   644.E-03
      OSSO-4         179         49   644.E-03
      OSSO-4         180         30   349.E-03
      OSSO-4         180         41   349.E-03
      OSSO-4         181         31         1.
      OSSO-4         182         31   705.E-03
      OSSO-4         182         65   705.E-03
      OSSO-4         183         32   275.E-03
      OSSO-4         183         64   275.E-03
      OSSO-4         184         32   313.E-03
      OSSO-4         184         43   313.E-03
      OSSO-4         185         34   235.E-03
      OSSO-4         185         56   235.E-03
      OSSO-4         186         34   283.E-03
      OSSO-4         186         62   283.E-03
      OSSO-4         187         35    65.E-03
      OSSO-4         187         66    65.E-03
      OSSO-4         188         35   119.E-03
      OSSO-4         188         54   119.E-03
      OSSO-4         189         36   226.E-03
      OSSO-4         189         70   226.E-03
      OSSO-4         190         36   291.E-03
      OSSO-4         190         44   291.E-03
      OSSO-4         191         36   220.E-03
      OSSO-4         191         57   220.E-03
      OSSO-4         192         36   191.E-03
      OSSO-4         192         61   191.E-03
      OSSO-4         193         37   178.E-03
      OSSO-4         193         61   178.E-03
      OSSO-4         194         37   155.E-03
      OSSO-4         194         57   155.E-03
      OSSO-4         195         37   164.E-03
      OSSO-4         195         52   164.E-03
      OSSO-4         196         37   231.E-03
      OSSO-4         196         67   231.E-03
      OSSO-4         197         38    84.E-03
      OSSO-4         198         38    99.E-03
      OSSO-4         198         58    99.E-03
      OSSO-4         199         38   308.E-03
      OSSO-4         199         59   308.E-03
      OSSO-4         200         39   184.E-03
      OSSO-4         200         70   184.E-03
      OSSO-4         201         39   225.E-03
      OSSO-4         201         61   225.E-03
      OSSO-4         202         39   274.E-03
      OSSO-4         202         40   274.E-03
      OSSO-4         203         40   530.E-03
      OSSO-4         204         40   260.E-03
      OSSO-4         204         67   260.E-03
      OSSO-4         205         41   332.E-03
      OSSO-4         205         65   332.E-03
      OSSO-4         206         41   217.E-03
      OSSO-4         206         54   217.E-03
      OSSO-4         207         41    84.E-03
      OSSO-4         207         66    84.E-03
      OSSO-4         208         42   437.E-03
      OSSO-4         208         48   437.E-03
      OSSO-4         209         42   468.E-03
      OSSO-4         209         63   468.E-03
      OSSO-4         210         42   414.E-03
      OSSO-4         210         43   414.E-03
      OSSO-4         211         43   432.E-03
      OSSO-4         211         60   432.E-03
      OSSO-4         212         43   310.E-03
      OSSO-4         212         47   310.E-03
      OSSO-4         213         44   471.E-03
      OSSO-4         213         63   471.E-03
      OSSO-4         214         44   351.E-03
      OSSO-4         214         62   351.E-03
      OSSO-4         215         45   398.E-03
      OSSO-4         215         69   398.E-03
      OSSO-4         216         45   419.E-03
      OSSO-4         216         68   419.E-03
      OSSO-4         217         46   637.E-03
      OSSO-4         217         51   637.E-03
      OSSO-4         218         46   755.E-03
      OSSO-4         219         47   156.E-03
      OSSO-4         220         48   453.E-03
      OSSO-4         220         68   453.E-03
      OSSO-4         221         49   609.E-03
      OSSO-4         221         60   609.E-03
      OSSO-4         222         50   389.E-03
      OSSO-4         222         59   389.E-03
      OSSO-4         223         52   130.E-03
      OSSO-4         223         56   130.E-03
      OSSO-4         224         52   112.E-03
      OSSO-4         224         58   112.E-03
      OSSO-4         225         52   221.E-03
      OSSO-4         226         53   387.E-03
      OSSO-4         226         69   387.E-03
      OSSO-4         227         53   373.E-03
      OSSO-4         227         62   373.E-03
      OSSO-4         228         53   415.E-03
      OSSO-4         228         68   415.E-03
      OSSO-4         229         54   221.E-03
      OSSO-4         229         70   221.E-03
      OSSO-4         230         55   161.E-03
      OSSO-4         230         58   161.E-03
      OSSO-4         231         55   174.E-03
      OSSO-4         231         56   174.E-03
      OSSO-4         232         55   266.E-03
      OSSO-4         232         59   266.E-03
      OSSO-4         233         56   178.E-03
      OSSO-4         233         57   178.E-03
      OSSO-4         234         57   264.E-03
      OSSO-4         234         62   264.E-03
      OSSO-4         235         58   112.E-03
      OSSO-4         236         60   513.E-03
      OSSO-4         236         63   513.E-03
      OSSO-4         237         61   243.E-03
      OSSO-4         237         67   243.E-03
      OSSO-4         238         63   444.E-03
      OSSO-4         238         68   444.E-03
      OSSO-4         239         64    81.E-03
      OSSO-4         240         65   384.E-03
      OSSO-4         241         67   278.E-03


********************************************************************************
Probe Values Report, written on Thu Oct 24 14:09:36 2024

Source
-------

   ODB: C:/temp/quad-quad-10.odb
   Step: step-1
   Frame: Increment      1: Step Time =    1.000
   Variable: S, Mises (Avg: 75)

Probe values reported at nodes

  Part Instance     Node ID            Orig. Coords                     Def. Coords          
                                 X          Y          Z          X          Y          Z    
-------------------------------------------------------------------------------------------
    ASSEMBLY           1        -6.        42.        0.0        -6.        42.        0.0
    ASSEMBLY           2        30.        37.        0.0        30.        37.        0.0
    ASSEMBLY           3         7.        18.        0.0         7.        18.        0.0
      OSSO-4           1        -4.       -42.        0.0        -4.       -42.        0.0
      OSSO-4           2        22.       -42.        0.0        22.       -42.        0.0
      OSSO-4           3        25.       -15.        0.0        25.       -15.        0.0
      OSSO-4           4        29.         7.        0.0        29.         7.        0.0
      OSSO-4           5        31.        18.        0.0        31.        18.        0.0
      OSSO-4           6        33.        29.        0.0        33.        29.        0.0
      OSSO-4           7        32.        34.        0.0        32.        34.        0.0
      OSSO-4           8        28.        38.        0.0        28.        38.        0.0
      OSSO-4           9        21.        41.        0.0        21.        41.        0.0
      OSSO-4          10        14.        44.        0.0        14.        44.        0.0
      OSSO-4          11         5.        45.        0.0         5.        45.        0.0
      OSSO-4          12        -4.        43.        0.0        -4.        43.        0.0
      OSSO-4          13        -8.        41.        0.0        -8.        41.        0.0
      OSSO-4          14       -15.        34.        0.0       -15.        34.        0.0
      OSSO-4          15       -18.        26.        0.0       -18.        26.        0.0
      OSSO-4          16       -19.        17.        0.0       -19.        17.        0.0
      OSSO-4          17       -17.         8.        0.0       -17.         8.        0.0
      OSSO-4          18       -14.         4.        0.0       -14.         4.        0.0
      OSSO-4          19       -10.         2.        0.0       -10.         2.        0.0
      OSSO-4          20        -7.        -1.        0.0        -7.        -1.        0.0
      OSSO-4          21        -6.        -4.        0.0        -6.        -4.        0.0
      OSSO-4          22        -6.        -7.        0.0        -6.        -7.        0.0
      OSSO-4          23        -4.       -14.        0.0        -4.       -14.        0.0
      OSSO-4          24        -4.       -25.        0.0        -4.       -25.        0.0
      OSSO-4          25         5.       -42.        0.0         5.       -42.        0.0
      OSSO-4          26        14.       -42.        0.0        14.       -42.        0.0
      OSSO-4          27        23.       -33.        0.0        23.       -33.        0.0
      OSSO-4          28        24.       -24.        0.0        24.       -24.        0.0
      OSSO-4          29        27.        -4.        0.0        27.        -4.        0.0
      OSSO-4          30        -4.       -34.        0.0        -4.       -34.        0.0
      OSSO-4          31        -3.         1.        0.0        -3.         1.        0.0
      OSSO-4          32         2.        -6.        0.0         2.        -6.        0.0
      OSSO-4          33        -4.         5.        0.0        -4.         5.        0.0
      OSSO-4          34        -3.        33.        0.0        -3.        33.        0.0
      OSSO-4          35        -8.         9.        0.0        -8.         9.        0.0
      OSSO-4          36  -345.E-03         3.        0.0  -341.E-03         3.        0.0
      OSSO-4          37         2.         1.        0.0         2.         1.        0.0
      OSSO-4          38        17.        37.        0.0        17.        37.        0.0
      OSSO-4          39        21.        34.        0.0        21.        34.        0.0
      OSSO-4          40         8.         5.        0.0         8.         5.        0.0
      OSSO-4          41         6.  -850.E-03        0.0         6.  -850.E-03        0.0
      OSSO-4          42        24.        31.        0.0        24.        31.        0.0
      OSSO-4          43        19.        28.        0.0        19.        28.        0.0
      OSSO-4          44        11.        34.        0.0        11.        34.        0.0
      OSSO-4          45         4.         5.        0.0         4.         5.        0.0
      OSSO-4          46        15.        31.        0.0        15.        31.        0.0
      OSSO-4          47  -224.E-03         6.        0.0  -221.E-03         6.        0.0
      OSSO-4          48         5.       -33.        0.0         5.       -33.        0.0
      OSSO-4          49       -14.        17.        0.0       -14.        17.        0.0
      OSSO-4          50       -12.        23.        0.0       -12.        23.        0.0
      OSSO-4          51        16.       -14.        0.0        16.       -14.        0.0
      OSSO-4          52        15.       -24.        0.0        15.       -24.        0.0
      OSSO-4          53   529.E-03        10.        0.0   533.E-03        10.        0.0
      OSSO-4          54         7.        11.        0.0         7.        11.        0.0
      OSSO-4          55         6.        31.        0.0         6.        31.        0.0
      OSSO-4          56        11.        -3.        0.0        11.        -3.        0.0
      OSSO-4          57        13.         5.        0.0        13.         5.        0.0
      OSSO-4          58        13.        12.        0.0        13.        12.        0.0
      OSSO-4          59        -8.        13.        0.0        -8.        13.        0.0
      OSSO-4          60        21.         6.        0.0        21.         6.        0.0
      OSSO-4          61         6.       -12.        0.0         6.       -12.        0.0
      OSSO-4          62         1.        29.        0.0         1.        29.        0.0
      OSSO-4          63        19.        25.        0.0        19.        25.        0.0
      OSSO-4          64        10.        25.        0.0        10.        25.        0.0
      OSSO-4          65        -8.        29.        0.0        -8.        29.        0.0
      OSSO-4          66        -6.        19.        0.0        -6.        19.        0.0
      OSSO-4          67        11.        18.        0.0        11.        18.        0.0
      OSSO-4          68         6.       -24.        0.0         6.       -24.        0.0
      OSSO-4          69         3.        16.        0.0         3.        16.        0.0
      OSSO-4          70        19.        19.        0.0        19.        19.        0.0
      OSSO-4          71   150.E-03        23.        0.0   155.E-03        23.        0.0
      OSSO-4          72        21.        14.        0.0        21.        14.        0.0
      OSSO-4          73        14.       -33.        0.0        14.       -33.        0.0
      OSSO-4          74        -1.        -2.        0.0        -1.        -2.        0.0
      OSSO-4          75        19.        -4.        0.0        19.        -4.        0.0
      OSSO-4          76        -4.        10.        0.0        -4.        10.        0.0
      OSSO-4          77       -12.        10.        0.0       -12.        10.        0.0
      OSSO-4          78       -14.        11.        0.0       -14.        11.        0.0
      OSSO-4          79         2.        36.        0.0         2.        36.        0.0
      OSSO-4          80         8.        39.        0.0         8.        39.        0.0
      OSSO-4          81        13.        40.        0.0        13.        40.        0.0
      OSSO-4          82        26.        26.        0.0        26.        26.        0.0
      OSSO-4          83        26.        21.        0.0        26.        21.        0.0
      OSSO-4          84       -10.        15.        0.0       -10.        15.        0.0
      OSSO-4          85        -4.        15.        0.0        -4.        15.        0.0
      OSSO-4          86         4.         9.        0.0         4.         9.        0.0
      OSSO-4          87        14.       -38.        0.0        14.       -38.        0.0
      OSSO-4          88        10.       -33.        0.0        10.       -33.        0.0
      OSSO-4          89         5.       -38.        0.0         5.       -38.        0.0
      OSSO-4          90         9.       -42.        0.0         9.       -42.        0.0
      OSSO-4          91   918.E-03       -33.        0.0   918.E-03       -33.        0.0
      OSSO-4          92        -4.       -38.        0.0        -4.       -38.        0.0
      OSSO-4          93   625.E-03       -42.        0.0   625.E-03       -42.        0.0
      OSSO-4          94   172.E-03        -4.        0.0   175.E-03        -4.        0.0
      OSSO-4          95         4.        -3.        0.0         4.        -3.        0.0
      OSSO-4          96         4.   245.E-03        0.0         4.   245.E-03        0.0
      OSSO-4          97   480.E-03  -253.E-03        0.0   483.E-03  -253.E-03        0.0
      OSSO-4          98         1.       -24.        0.0         1.       -24.        0.0
      OSSO-4          99         6.       -18.        0.0         6.       -18.        0.0
      OSSO-4         100         1.       -13.        0.0         1.       -13.        0.0
      OSSO-4         101        -4.       -19.        0.0        -4.       -19.        0.0
      OSSO-4         102   898.E-03         2.        0.0   902.E-03         2.        0.0
      OSSO-4         103        -2.         2.        0.0        -2.         2.        0.0
      OSSO-4         104        -2.  -296.E-03        0.0        -2.  -296.E-03        0.0
      OSSO-4         105        -2.        -6.        0.0        -2.        -6.        0.0
      OSSO-4         106        -5.       -11.        0.0        -5.       -11.        0.0
      OSSO-4         107         4.        -9.        0.0         4.        -9.        0.0
      OSSO-4         108        -5.    -4.E-03        0.0        -5.    -4.E-03        0.0
      OSSO-4         109        -7.        -3.        0.0        -7.        -3.        0.0
      OSSO-4         110        -3.        -3.        0.0        -3.        -3.        0.0
      OSSO-4         111        -4.         3.        0.0        -4.         3.        0.0
      OSSO-4         112        -7.         3.        0.0        -7.         3.        0.0
      OSSO-4         113        -8.   551.E-03        0.0        -8.   552.E-03        0.0
      OSSO-4         114         6.         5.        0.0         6.         5.        0.0
      OSSO-4         115         7.         8.        0.0         7.         8.        0.0
      OSSO-4         116         5.        10.        0.0         5.        10.        0.0
      OSSO-4         117         4.         7.        0.0         4.         7.        0.0
      OSSO-4         118         6.        42.        0.0         6.        42.        0.0
      OSSO-4         119        10.        40.        0.0        10.        40.        0.0
      OSSO-4         120        14.        42.        0.0        14.        42.        0.0
      OSSO-4         121        10.        45.        0.0        10.        45.        0.0
      OSSO-4         122        15.        39.        0.0        15.        39.        0.0
      OSSO-4         123        19.        39.        0.0        19.        39.        0.0
      OSSO-4         124        18.        43.        0.0        18.        43.        0.0
      OSSO-4         125         3.         3.        0.0         3.         3.        0.0
      OSSO-4         126         2.         6.        0.0         2.         6.        0.0
      OSSO-4         127  -285.E-03         4.        0.0  -281.E-03         4.        0.0
      OSSO-4         128       -12.        38.        0.0       -12.        38.        0.0
      OSSO-4         129       -11.        32.        0.0       -11.        32.        0.0
      OSSO-4         130        -5.        31.        0.0        -5.        31.        0.0
      OSSO-4         131        -6.        37.        0.0        -6.        37.        0.0
      OSSO-4         132       -15.        25.        0.0       -15.        25.        0.0
      OSSO-4         133       -10.        26.        0.0       -10.        26.        0.0
      OSSO-4         134       -17.        30.        0.0       -17.        30.        0.0
      OSSO-4         135        -2.         5.        0.0        -2.         5.        0.0
      OSSO-4         136       -11.        12.        0.0       -11.        12.        0.0
      OSSO-4         137       -10.         9.        0.0       -10.         9.        0.0
      OSSO-4         138        -8.        11.        0.0        -8.        11.        0.0
      OSSO-4         139        -9.        14.        0.0        -9.        14.        0.0
      OSSO-4         140       -12.         3.        0.0       -12.         3.        0.0
      OSSO-4         141        -9.         5.        0.0        -9.         5.        0.0
      OSSO-4         142       -13.         7.        0.0       -13.         7.        0.0
      OSSO-4         143        -4.         7.        0.0        -4.         7.        0.0
      OSSO-4         144        -6.         9.        0.0        -6.         9.        0.0
      OSSO-4         145        19.        36.        0.0        19.        36.        0.0
      OSSO-4         146        24.        36.        0.0        24.        36.        0.0
      OSSO-4         147        24.        40.        0.0        24.        40.        0.0
      OSSO-4         148        22.        29.        0.0        22.        29.        0.0
      OSSO-4         149        23.        32.        0.0        23.        32.        0.0
      OSSO-4         150        18.        32.        0.0        18.        32.        0.0
      OSSO-4         151        17.        29.        0.0        17.        29.        0.0
      OSSO-4         152        28.        32.        0.0        28.        32.        0.0
      OSSO-4         153        30.        37.        0.0        30.        37.        0.0
      OSSO-4         154        20.       -24.        0.0        20.       -24.        0.0
      OSSO-4         155        25.       -20.        0.0        25.       -20.        0.0
      OSSO-4         156        21.       -15.        0.0        21.       -15.        0.0
      OSSO-4         157        16.       -19.        0.0        16.       -19.        0.0
      OSSO-4         158        23.       -38.        0.0        23.       -38.        0.0
      OSSO-4         159        19.       -33.        0.0        19.       -33.        0.0
      OSSO-4         160        18.       -42.        0.0        18.       -42.        0.0
      OSSO-4         161        11.       -13.        0.0        11.       -13.        0.0
      OSSO-4         162        10.       -24.        0.0        10.       -24.        0.0
      OSSO-4         163         9.        -2.        0.0         9.        -2.        0.0
      OSSO-4         164        12.   884.E-03        0.0        12.   884.E-03        0.0
      OSSO-4         165        11.         5.        0.0        11.         5.        0.0
      OSSO-4         166         7.         2.        0.0         7.         2.        0.0
      OSSO-4         167        -6.        -5.        0.0        -6.        -5.        0.0
      OSSO-4         168   667.E-03        26.        0.0   672.E-03        26.        0.0
      OSSO-4         169         5.        24.        0.0         5.        24.        0.0
      OSSO-4         170         8.        28.        0.0         8.        28.        0.0
      OSSO-4         171         4.        30.        0.0         4.        30.        0.0
      OSSO-4         172         6.       -28.        0.0         6.       -28.        0.0
      OSSO-4         173        -4.       -29.        0.0        -4.       -29.        0.0
      OSSO-4         174       -19.        13.        0.0       -19.        13.        0.0
      OSSO-4         175       -16.        10.        0.0       -16.        10.        0.0
      OSSO-4         176       -14.        14.        0.0       -14.        14.        0.0
      OSSO-4         177       -17.        17.        0.0       -17.        17.        0.0
      OSSO-4         178  -870.E-03        35.        0.0  -865.E-03        35.        0.0
      OSSO-4         179        -1.        31.        0.0        -1.        31.        0.0
      OSSO-4         180         4.        34.        0.0         4.        34.        0.0
      OSSO-4         181        -6.        42.        0.0        -6.        42.        0.0
      OSSO-4         182        -1.        40.        0.0        -1.        40.        0.0
      OSSO-4         183       -13.        10.        0.0       -13.        10.        0.0
      OSSO-4         184       -12.        16.        0.0       -12.        16.        0.0
      OSSO-4         185        13.         9.        0.0        13.         9.        0.0
      OSSO-4         186        10.        12.        0.0        10.        12.        0.0
      OSSO-4         187        14.        36.        0.0        14.        36.        0.0
      OSSO-4         188        13.        32.        0.0        13.        32.        0.0
      OSSO-4         189        15.        25.        0.0        15.        25.        0.0
      OSSO-4         190        11.        22.        0.0        11.        22.        0.0
      OSSO-4         191        15.        19.        0.0        15.        19.        0.0
      OSSO-4         192        19.        22.        0.0        19.        22.        0.0
      OSSO-4         193        22.        20.        0.0        22.        20.        0.0
      OSSO-4         194        20.        17.        0.0        20.        17.        0.0
      OSSO-4         195        26.        16.        0.0        26.        16.        0.0
      OSSO-4         196        28.        20.        0.0        28.        20.        0.0
      OSSO-4         197        26.        -9.        0.0        26.        -9.        0.0
      OSSO-4         198        23.        -4.        0.0        23.        -4.        0.0
      OSSO-4         199        18.        -9.        0.0        18.        -9.        0.0
      OSSO-4         200        19.        26.        0.0        19.        26.        0.0
      OSSO-4         201        22.        25.        0.0        22.        25.        0.0
      OSSO-4         202        25.        28.        0.0        25.        28.        0.0
      OSSO-4         203        33.        32.        0.0        33.        32.        0.0
      OSSO-4         204        29.        28.        0.0        29.        28.        0.0
      OSSO-4         205         5.        38.        0.0         5.        38.        0.0
      OSSO-4         206         9.        33.        0.0         9.        33.        0.0
      OSSO-4         207         9.        37.        0.0         9.        37.        0.0
      OSSO-4         208        -6.        14.        0.0        -6.        14.        0.0
      OSSO-4         209        -5.        17.        0.0        -5.        17.        0.0
      OSSO-4         210        -8.        17.        0.0        -8.        17.        0.0
      OSSO-4         211        -9.        21.        0.0        -9.        21.        0.0
      OSSO-4         212       -13.        20.        0.0       -13.        20.        0.0
      OSSO-4         213         2.        20.        0.0         2.        20.        0.0
      OSSO-4         214         7.        17.        0.0         7.        17.        0.0
      OSSO-4         215   152.E-03         8.        0.0   156.E-03         8.        0.0
      OSSO-4         216        -2.        10.        0.0        -2.        10.        0.0
      OSSO-4         217        15.       -28.        0.0        15.       -28.        0.0
      OSSO-4         218        24.       -29.        0.0        24.       -29.        0.0
      OSSO-4         219       -19.        22.        0.0       -19.        22.        0.0
      OSSO-4         220        -4.        12.        0.0        -4.        12.        0.0
      OSSO-4         221        -4.        26.        0.0        -4.        26.        0.0
      OSSO-4         222         9.        -8.        0.0         9.        -8.        0.0
      OSSO-4         223        21.        10.        0.0        21.        10.        0.0
      OSSO-4         224        25.         6.        0.0        25.         6.        0.0
      OSSO-4         225        30.        13.        0.0        30.        13.        0.0
      OSSO-4         226         2.         9.        0.0         2.         9.        0.0
      OSSO-4         227         5.        13.        0.0         5.        13.        0.0
      OSSO-4         228         2.        13.        0.0         2.        13.        0.0
      OSSO-4         229        13.        28.        0.0        13.        28.        0.0
      OSSO-4         230        20.   787.E-03        0.0        20.   786.E-03        0.0
      OSSO-4         231        17.         5.        0.0        17.         5.        0.0
      OSSO-4         232        15.        -4.        0.0        15.        -4.        0.0
      OSSO-4         233        17.        13.        0.0        17.        13.        0.0
      OSSO-4         234        12.        15.        0.0        12.        15.        0.0
      OSSO-4         235        28.         2.        0.0        28.         2.        0.0
      OSSO-4         236        -3.        21.        0.0        -3.        21.        0.0
      OSSO-4         237        26.        24.        0.0        26.        24.        0.0
      OSSO-4         238  -363.E-03        15.        0.0  -359.E-03        15.        0.0
      OSSO-4         239       -16.         6.        0.0       -16.         6.        0.0
      OSSO-4         240   667.E-03        44.        0.0   673.E-03        44.        0.0
      OSSO-4         241        32.        23.        0.0        32.        23.        0.0


  Part Instance     Node ID  Attached elements   S, Mises
----------------------------------------------------------
    ASSEMBLY           1          1    NoValue
    ASSEMBLY           2          2    NoValue
    ASSEMBLY           3          3    NoValue
    ASSEMBLY           3          4    NoValue
      OSSO-4           1          2   872.E-03
      OSSO-4           2         23         2.
      OSSO-4           3         22   223.E-03
      OSSO-4           3         38   223.E-03
      OSSO-4           4         52   178.E-03
      OSSO-4           4         58   178.E-03
      OSSO-4           5         37   245.E-03
      OSSO-4           5         52   245.E-03
      OSSO-4           5         67   245.E-03
      OSSO-4           6         40   285.E-03
      OSSO-4           6         67   285.E-03
      OSSO-4           7         21   896.E-03
      OSSO-4           7         40   896.E-03
      OSSO-4           8         19   381.E-03
      OSSO-4           8         21   381.E-03
      OSSO-4           9         11   103.E-03
      OSSO-4           9         19   103.E-03
      OSSO-4          10         10   144.E-03
      OSSO-4          10         11   144.E-03
      OSSO-4          11         10   305.E-03
      OSSO-4          11         65   305.E-03
      OSSO-4          12         31   840.E-03
      OSSO-4          12         65   840.E-03
      OSSO-4          13         13         2.
      OSSO-4          13         31         2.
      OSSO-4          14         13   432.E-03
      OSSO-4          14         14   432.E-03
      OSSO-4          15         14   156.E-03
      OSSO-4          15         47   156.E-03
      OSSO-4          16         29   142.E-03
      OSSO-4          16         47   142.E-03
      OSSO-4          17         29    81.E-03
      OSSO-4          17         64    81.E-03
      OSSO-4          18         17   108.E-03
      OSSO-4          18         64   108.E-03
      OSSO-4          19          8   540.E-03
      OSSO-4          19         17   540.E-03
      OSSO-4          19         18   540.E-03
      OSSO-4          20          7   752.E-03
      OSSO-4          20          8   752.E-03
      OSSO-4          21          7   917.E-03
      OSSO-4          21         26   917.E-03
      OSSO-4          22          6   587.E-03
      OSSO-4          22         26   587.E-03
      OSSO-4          23          4   389.E-03
      OSSO-4          23          6   389.E-03
      OSSO-4          24          4    85.E-03
      OSSO-4          24         28    85.E-03
      OSSO-4          25          1   219.E-03
      OSSO-4          25          2   219.E-03
      OSSO-4          26          1   443.E-03
      OSSO-4          26         23   443.E-03
      OSSO-4          27         23   997.E-03
      OSSO-4          27         46   997.E-03
      OSSO-4          28         22   532.E-03
      OSSO-4          28         46   532.E-03
      OSSO-4          29         38    49.E-03
      OSSO-4          29         58    49.E-03
      OSSO-4          30          2   486.E-03
      OSSO-4          30         28   486.E-03
      OSSO-4          31          5   446.E-03
      OSSO-4          31          7   446.E-03
      OSSO-4          31          8   446.E-03
      OSSO-4          31         15   446.E-03
      OSSO-4          32          3   448.E-03
      OSSO-4          32          6   448.E-03
      OSSO-4          32         26   448.E-03
      OSSO-4          32         50   448.E-03
      OSSO-4          33          8   449.E-03
      OSSO-4          33         15   449.E-03
      OSSO-4          33         18   449.E-03
      OSSO-4          33         45   449.E-03
      OSSO-4          34         13         1.
      OSSO-4          34         30         1.
      OSSO-4          34         31         1.
      OSSO-4          34         49         1.
      OSSO-4          35         16   422.E-03
      OSSO-4          35         17   422.E-03
      OSSO-4          35         18   422.E-03
      OSSO-4          35         48   422.E-03
      OSSO-4          36          5   377.E-03
      OSSO-4          36         12   377.E-03
      OSSO-4          36         15   377.E-03
      OSSO-4          37          3   354.E-03
      OSSO-4          37          5   354.E-03
      OSSO-4          37         12   354.E-03
      OSSO-4          37         33   354.E-03
      OSSO-4          38         11    89.E-03
      OSSO-4          38         19    89.E-03
      OSSO-4          38         35    89.E-03
      OSSO-4          38         66    89.E-03
      OSSO-4          39         19   205.E-03
      OSSO-4          39         20   205.E-03
      OSSO-4          39         21   205.E-03
      OSSO-4          39         35   205.E-03
      OSSO-4          40          9   296.E-03
      OSSO-4          40         25   296.E-03
      OSSO-4          40         33   296.E-03
      OSSO-4          40         34   296.E-03
      OSSO-4          41          3   328.E-03
      OSSO-4          41         25   328.E-03
      OSSO-4          41         33   328.E-03
      OSSO-4          41         50   328.E-03
      OSSO-4          42         20   306.E-03
      OSSO-4          42         21   306.E-03
      OSSO-4          42         39   306.E-03
      OSSO-4          42         40   306.E-03
      OSSO-4          43         20   151.E-03
      OSSO-4          43         39   151.E-03
      OSSO-4          43         70   151.E-03
      OSSO-4          44         35    76.E-03
      OSSO-4          44         41    76.E-03
      OSSO-4          44         54    76.E-03
      OSSO-4          44         66    76.E-03
      OSSO-4          45          9   344.E-03
      OSSO-4          45         12   344.E-03
      OSSO-4          45         33   344.E-03
      OSSO-4          45         69   344.E-03
      OSSO-4          46         20   170.E-03
      OSSO-4          46         35   170.E-03
      OSSO-4          46         54   170.E-03
      OSSO-4          46         70   170.E-03
      OSSO-4          47         12   389.E-03
      OSSO-4          47         15   389.E-03
      OSSO-4          47         45   389.E-03
      OSSO-4          47         69   389.E-03
      OSSO-4          48          1   482.E-03
      OSSO-4          48          2   482.E-03
      OSSO-4          48         28   482.E-03
      OSSO-4          48         51   482.E-03
      OSSO-4          49         29   250.E-03
      OSSO-4          49         32   250.E-03
      OSSO-4          49         43   250.E-03
      OSSO-4          49         47   250.E-03
      OSSO-4          50         14   391.E-03
      OSSO-4          50         43   391.E-03
      OSSO-4          50         47   391.E-03
      OSSO-4          50         60   391.E-03
      OSSO-4          51         22   404.E-03
      OSSO-4          51         24   404.E-03
      OSSO-4          51         38   404.E-03
      OSSO-4          51         59   404.E-03
      OSSO-4          52         22   578.E-03
      OSSO-4          52         24   578.E-03
      OSSO-4          52         46   578.E-03
      OSSO-4          52         51   578.E-03
      OSSO-4          53         45   414.E-03
      OSSO-4          53         53   414.E-03
      OSSO-4          53         68   414.E-03
      OSSO-4          53         69   414.E-03
      OSSO-4          54          9   328.E-03
      OSSO-4          54         34   328.E-03
      OSSO-4          54         53   328.E-03
      OSSO-4          54         62   328.E-03
      OSSO-4          55         27   361.E-03
      OSSO-4          55         30   361.E-03
      OSSO-4          55         41   361.E-03
      OSSO-4          55         54   361.E-03
      OSSO-4          56         25   320.E-03
      OSSO-4          56         50   320.E-03
      OSSO-4          56         55   320.E-03
      OSSO-4          56         59   320.E-03
      OSSO-4          57         25   233.E-03
      OSSO-4          57         34   233.E-03
      OSSO-4          57         55   233.E-03
      OSSO-4          57         56   233.E-03
      OSSO-4          58         34   241.E-03
      OSSO-4          58         56   241.E-03
      OSSO-4          58         57   241.E-03
      OSSO-4          58         62   241.E-03
      OSSO-4          59         16   410.E-03
      OSSO-4          59         42   410.E-03
      OSSO-4          59         48   410.E-03
      OSSO-4          60         52   125.E-03
      OSSO-4          60         55   125.E-03
      OSSO-4          60         56   125.E-03
      OSSO-4          60         58   125.E-03
      OSSO-4          61          4   459.E-03
      OSSO-4          61          6   459.E-03
      OSSO-4          61         24   459.E-03
      OSSO-4          61         50   459.E-03
      OSSO-4          61         59   459.E-03
      OSSO-4          62         27   484.E-03
      OSSO-4          62         30   484.E-03
      OSSO-4          62         49   484.E-03
      OSSO-4          63         36   203.E-03
      OSSO-4          63         39   203.E-03
      OSSO-4          63         61   203.E-03
      OSSO-4          63         70   203.E-03
      OSSO-4          64         27   287.E-03
      OSSO-4          64         36   287.E-03
      OSSO-4          64         44   287.E-03
      OSSO-4          64         54   287.E-03
      OSSO-4          64         70   287.E-03
      OSSO-4          65         13   745.E-03
      OSSO-4          65         14   745.E-03
      OSSO-4          65         49   745.E-03
      OSSO-4          65         60   745.E-03
      OSSO-4          66         42   466.E-03
      OSSO-4          66         43   466.E-03
      OSSO-4          66         60   466.E-03
      OSSO-4          66         63   466.E-03
      OSSO-4          67         36   289.E-03
      OSSO-4          67         44   289.E-03
      OSSO-4          67         57   289.E-03
      OSSO-4          67         62   289.E-03
      OSSO-4          68          4   492.E-03
      OSSO-4          68         24   492.E-03
      OSSO-4          68         28   492.E-03
      OSSO-4          68         51   492.E-03
      OSSO-4          69         44   418.E-03
      OSSO-4          69         53   418.E-03
      OSSO-4          69         62   418.E-03
      OSSO-4          69         63   418.E-03
      OSSO-4          69         68   418.E-03
      OSSO-4          70         36   174.E-03
      OSSO-4          70         37   174.E-03
      OSSO-4          70         57   174.E-03
      OSSO-4          70         61   174.E-03
      OSSO-4          71         27   539.E-03
      OSSO-4          71         44   539.E-03
      OSSO-4          71         49   539.E-03
      OSSO-4          71         60   539.E-03
      OSSO-4          71         63   539.E-03
      OSSO-4          72         37   139.E-03
      OSSO-4          72         52   139.E-03
      OSSO-4          72         56   139.E-03
      OSSO-4          72         57   139.E-03
      OSSO-4          73          1   735.E-03
      OSSO-4          73         23   735.E-03
      OSSO-4          73         46   735.E-03
      OSSO-4          73         51   735.E-03
      OSSO-4          74          3   368.E-03
      OSSO-4          74          5   368.E-03
      OSSO-4          74          7   368.E-03
      OSSO-4          74         26   368.E-03
      OSSO-4          75         38   211.E-03
      OSSO-4          75         55   211.E-03
      OSSO-4          75         58   211.E-03
      OSSO-4          75         59   211.E-03
      OSSO-4          76         18   437.E-03
      OSSO-4          76         45   437.E-03
      OSSO-4          76         48   437.E-03
      OSSO-4          76         68   437.E-03
      OSSO-4          77         16   332.E-03
      OSSO-4          77         17   332.E-03
      OSSO-4          77         32   332.E-03
      OSSO-4          77         64   332.E-03
      OSSO-4          78         29   229.E-03
      OSSO-4          78         32   229.E-03
      OSSO-4          78         64   229.E-03
      OSSO-4          79         30   640.E-03
      OSSO-4          79         31   640.E-03
      OSSO-4          79         41   640.E-03
      OSSO-4          79         65   640.E-03
      OSSO-4          80         10   195.E-03
      OSSO-4          80         41   195.E-03
      OSSO-4          80         65   195.E-03
      OSSO-4          80         66   195.E-03
      OSSO-4          81         10    83.E-03
      OSSO-4          81         11    83.E-03
      OSSO-4          81         66    83.E-03
      OSSO-4          82         39   323.E-03
      OSSO-4          82         40   323.E-03
      OSSO-4          82         61   323.E-03
      OSSO-4          82         67   323.E-03
      OSSO-4          83         37   221.E-03
      OSSO-4          83         61   221.E-03
      OSSO-4          83         67   221.E-03
      OSSO-4          84         16   376.E-03
      OSSO-4          84         32   376.E-03
      OSSO-4          84         42   376.E-03
      OSSO-4          84         43   376.E-03
      OSSO-4          85         42   468.E-03
      OSSO-4          85         48   468.E-03
      OSSO-4          85         63   468.E-03
      OSSO-4          85         68   468.E-03
      OSSO-4          86          9   362.E-03
      OSSO-4          86         53   362.E-03
      OSSO-4          86         69   362.E-03
      OSSO-4          87          1   607.E-03
      OSSO-4          87         23   607.E-03
      OSSO-4          88          1   540.E-03
      OSSO-4          88         51   540.E-03
      OSSO-4          89          1   351.E-03
      OSSO-4          89          2   351.E-03
      OSSO-4          90          1   326.E-03
      OSSO-4          91          2   317.E-03
      OSSO-4          91         28   317.E-03
      OSSO-4          92          2   658.E-03
      OSSO-4          93          2   454.E-03
      OSSO-4          94          3   401.E-03
      OSSO-4          94         26   401.E-03
      OSSO-4          95          3   386.E-03
      OSSO-4          95         50   386.E-03
      OSSO-4          96          3   338.E-03
      OSSO-4          96         33   338.E-03
      OSSO-4          97          3   374.E-03
      OSSO-4          97          5   374.E-03
      OSSO-4          98          4   256.E-03
      OSSO-4          98         28   256.E-03
      OSSO-4          99          4   479.E-03
      OSSO-4          99         24   479.E-03
      OSSO-4         100          4   399.E-03
      OSSO-4         100          6   399.E-03
      OSSO-4         101          4   169.E-03
      OSSO-4         102          5   364.E-03
      OSSO-4         102         12   364.E-03
      OSSO-4         103          5   424.E-03
      OSSO-4         103         15   424.E-03
      OSSO-4         104          5   420.E-03
      OSSO-4         104          7   420.E-03
      OSSO-4         105          6   482.E-03
      OSSO-4         105         26   482.E-03
      OSSO-4         106          6   484.E-03
      OSSO-4         107          6   444.E-03
      OSSO-4         107         50   444.E-03
      OSSO-4         108          7   579.E-03
      OSSO-4         108          8   579.E-03
      OSSO-4         109          7   798.E-03
      OSSO-4         110          7   627.E-03
      OSSO-4         110         26   627.E-03
      OSSO-4         111          8   424.E-03
      OSSO-4         111         15   424.E-03
      OSSO-4         112          8   455.E-03
      OSSO-4         112         18   455.E-03
      OSSO-4         113          8   713.E-03
      OSSO-4         114          9   319.E-03
      OSSO-4         114         33   319.E-03
      OSSO-4         115          9   312.E-03
      OSSO-4         115         34   312.E-03
      OSSO-4         116          9   344.E-03
      OSSO-4         116         53   344.E-03
      OSSO-4         117          9   353.E-03
      OSSO-4         117         69   353.E-03
      OSSO-4         118         10   176.E-03
      OSSO-4         118         65   176.E-03
      OSSO-4         119         10    96.E-03
      OSSO-4         119         66    96.E-03
      OSSO-4         120         10   103.E-03
      OSSO-4         120         11   103.E-03
      OSSO-4         121         10    92.E-03
      OSSO-4         122         11    66.E-03
      OSSO-4         122         66    66.E-03
      OSSO-4         123         11    97.E-03
      OSSO-4         123         19    97.E-03
      OSSO-4         124         11   135.E-03
      OSSO-4         125         12   345.E-03
      OSSO-4         125         33   345.E-03
      OSSO-4         126         12   366.E-03
      OSSO-4         126         69   366.E-03
      OSSO-4         127         12   386.E-03
      OSSO-4         127         15   386.E-03
      OSSO-4         128         13   823.E-03
      OSSO-4         129         13   395.E-03
      OSSO-4         129         14   395.E-03
      OSSO-4         130         13   829.E-03
      OSSO-4         130         49   829.E-03
      OSSO-4         131         13         1.
      OSSO-4         131         31         1.
      OSSO-4         132         14   264.E-03
      OSSO-4         132         47   264.E-03
      OSSO-4         133         14   519.E-03
      OSSO-4         133         60   519.E-03
      OSSO-4         134         14   239.E-03
      OSSO-4         135         15   420.E-03
      OSSO-4         135         45   420.E-03
      OSSO-4         136         16   337.E-03
      OSSO-4         136         32   337.E-03
      OSSO-4         137         16   377.E-03
      OSSO-4         137         17   377.E-03
      OSSO-4         138         16   411.E-03
      OSSO-4         138         48   411.E-03
      OSSO-4         139         16   391.E-03
      OSSO-4         139         42   391.E-03
      OSSO-4         140         17   281.E-03
      OSSO-4         141         17   419.E-03
      OSSO-4         141         18   419.E-03
      OSSO-4         142         17   199.E-03
      OSSO-4         142         64   199.E-03
      OSSO-4         143         18   450.E-03
      OSSO-4         143         45   450.E-03
      OSSO-4         144         18   440.E-03
      OSSO-4         144         48   440.E-03
      OSSO-4         145         19   146.E-03
      OSSO-4         145         35   146.E-03
      OSSO-4         146         19   283.E-03
      OSSO-4         146         21   283.E-03
      OSSO-4         147         19    77.E-03
      OSSO-4         148         20   228.E-03
      OSSO-4         148         39   228.E-03
      OSSO-4         149         20   256.E-03
      OSSO-4         149         21   256.E-03
      OSSO-4         150         20   119.E-03
      OSSO-4         150         35   119.E-03
      OSSO-4         151         20   151.E-03
      OSSO-4         151         70   151.E-03
      OSSO-4         152         21   548.E-03
      OSSO-4         152         40   548.E-03
      OSSO-4         153         21   458.E-03
      OSSO-4         154         22   509.E-03
      OSSO-4         154         46   509.E-03
      OSSO-4         155         22   379.E-03
      OSSO-4         156         22   283.E-03
      OSSO-4         156         38   283.E-03
      OSSO-4         157         22   484.E-03
      OSSO-4         157         24   484.E-03
      OSSO-4         158         23         1.
      OSSO-4         159         23   770.E-03
      OSSO-4         159         46   770.E-03
      OSSO-4         160         23         1.
      OSSO-4         161         24   430.E-03
      OSSO-4         161         59   430.E-03
      OSSO-4         162         24   522.E-03
      OSSO-4         162         51   522.E-03
      OSSO-4         163         25   324.E-03
      OSSO-4         163         50   324.E-03
      OSSO-4         164         25   272.E-03
      OSSO-4         164         55   272.E-03
      OSSO-4         165         25   264.E-03
      OSSO-4         165         34   264.E-03
      OSSO-4         166         25   313.E-03
      OSSO-4         166         33   313.E-03
      OSSO-4         167         26   755.E-03
      OSSO-4         168         27   513.E-03
      OSSO-4         168         49   513.E-03
      OSSO-4         169         27   398.E-03
      OSSO-4         169         44   398.E-03
      OSSO-4         170         27   318.E-03
      OSSO-4         170         54   318.E-03
      OSSO-4         171         27   413.E-03
      OSSO-4         171         30   413.E-03
      OSSO-4         172         28   482.E-03
      OSSO-4         172         51   482.E-03
      OSSO-4         173         28   281.E-03
      OSSO-4         174         29   109.E-03
      OSSO-4         175         29   155.E-03
      OSSO-4         175         64   155.E-03
      OSSO-4         176         29   236.E-03
      OSSO-4         176         32   236.E-03
      OSSO-4         177         29   195.E-03
      OSSO-4         177         47   195.E-03
      OSSO-4         178         30   875.E-03
      OSSO-4         178         31   875.E-03
      OSSO-4         179         30   644.E-03
      OSSO-4         179         49   644.E-03
      OSSO-4         180         30   349.E-03
      OSSO-4         180         41   349.E-03
      OSSO-4         181         31         1.
      OSSO-4         182         31   705.E-03
      OSSO-4         182         65   705.E-03
      OSSO-4         183         32   275.E-03
      OSSO-4         183         64   275.E-03
      OSSO-4         184         32   313.E-03
      OSSO-4         184         43   313.E-03
      OSSO-4         185         34   235.E-03
      OSSO-4         185         56   235.E-03
      OSSO-4         186         34   283.E-03
      OSSO-4         186         62   283.E-03
      OSSO-4         187         35    65.E-03
      OSSO-4         187         66    65.E-03
      OSSO-4         188         35   119.E-03
      OSSO-4         188         54   119.E-03
      OSSO-4         189         36   226.E-03
      OSSO-4         189         70   226.E-03
      OSSO-4         190         36   291.E-03
      OSSO-4         190         44   291.E-03
      OSSO-4         191         36   220.E-03
      OSSO-4         191         57   220.E-03
      OSSO-4         192         36   191.E-03
      OSSO-4         192         61   191.E-03
      OSSO-4         193         37   178.E-03
      OSSO-4         193         61   178.E-03
      OSSO-4         194         37   155.E-03
      OSSO-4         194         57   155.E-03
      OSSO-4         195         37   164.E-03
      OSSO-4         195         52   164.E-03
      OSSO-4         196         37   231.E-03
      OSSO-4         196         67   231.E-03
      OSSO-4         197         38    84.E-03
      OSSO-4         198         38    99.E-03
      OSSO-4         198         58    99.E-03
      OSSO-4         199         38   308.E-03
      OSSO-4         199         59   308.E-03
      OSSO-4         200         39   184.E-03
      OSSO-4         200         70   184.E-03
      OSSO-4         201         39   225.E-03
      OSSO-4         201         61   225.E-03
      OSSO-4         202         39   274.E-03
      OSSO-4         202         40   274.E-03
      OSSO-4         203         40   530.E-03
      OSSO-4         204         40   260.E-03
      OSSO-4         204         67   260.E-03
      OSSO-4         205         41   332.E-03
      OSSO-4         205         65   332.E-03
      OSSO-4         206         41   217.E-03
      OSSO-4         206         54   217.E-03
      OSSO-4         207         41    84.E-03
      OSSO-4         207         66    84.E-03
      OSSO-4         208         42   437.E-03
      OSSO-4         208         48   437.E-03
      OSSO-4         209         42   468.E-03
      OSSO-4         209         63   468.E-03
      OSSO-4         210         42   414.E-03
      OSSO-4         210         43   414.E-03
      OSSO-4         211         43   432.E-03
      OSSO-4         211         60   432.E-03
      OSSO-4         212         43   310.E-03
      OSSO-4         212         47   310.E-03
      OSSO-4         213         44   471.E-03
      OSSO-4         213         63   471.E-03
      OSSO-4         214         44   351.E-03
      OSSO-4         214         62   351.E-03
      OSSO-4         215         45   398.E-03
      OSSO-4         215         69   398.E-03
      OSSO-4         216         45   419.E-03
      OSSO-4         216         68   419.E-03
      OSSO-4         217         46   637.E-03
      OSSO-4         217         51   637.E-03
      OSSO-4         218         46   755.E-03
      OSSO-4         219         47   156.E-03
      OSSO-4         220         48   453.E-03
      OSSO-4         220         68   453.E-03
      OSSO-4         221         49   609.E-03
      OSSO-4         221         60   609.E-03
      OSSO-4         222         50   389.E-03
      OSSO-4         222         59   389.E-03
      OSSO-4         223         52   130.E-03
      OSSO-4         223         56   130.E-03
      OSSO-4         224         52   112.E-03
      OSSO-4         224         58   112.E-03
      OSSO-4         225         52   221.E-03
      OSSO-4         226         53   387.E-03
      OSSO-4         226         69   387.E-03
      OSSO-4         227         53   373.E-03
      OSSO-4         227         62   373.E-03
      OSSO-4         228         53   415.E-03
      OSSO-4         228         68   415.E-03
      OSSO-4         229         54   221.E-03
      OSSO-4         229         70   221.E-03
      OSSO-4         230         55   161.E-03
      OSSO-4         230         58   161.E-03
      OSSO-4         231         55   174.E-03
      OSSO-4         231         56   174.E-03
      OSSO-4         232         55   266.E-03
      OSSO-4         232         59   266.E-03
      OSSO-4         233         56   178.E-03
      OSSO-4         233         57   178.E-03
      OSSO-4         234         57   264.E-03
      OSSO-4         234         62   264.E-03
      OSSO-4         235         58   112.E-03
      OSSO-4         236         60   513.E-03
      OSSO-4         236         63   513.E-03
      OSSO-4         237         61   243.E-03
      OSSO-4         237         67   243.E-03
      OSSO-4         238         63   444.E-03
      OSSO-4         238         68   444.E-03
      OSSO-4         239         64    81.E-03
      OSSO-4         240         65   384.E-03
      OSSO-4         241         67   278.E-03


********************************************************************************
Probe Values Report, written on Thu Oct 24 14:10:29 2024

Source
-------

   ODB: C:/temp/quad-quad-10.odb
   Step: step-1
   Frame: Increment      1: Step Time =    1.000
   Variable: S, Mises (Avg: 75)

Probe values reported at nodes

  Part Instance     Node ID            Orig. Coords                     Def. Coords          
                                 X          Y          Z          X          Y          Z    
-------------------------------------------------------------------------------------------
    ASSEMBLY           1        -6.        42.        0.0        -6.        42.        0.0
    ASSEMBLY           2        30.        37.        0.0        30.        37.        0.0
    ASSEMBLY           3         7.        18.        0.0         7.        18.        0.0
      OSSO-4           1        -4.       -42.        0.0        -4.       -42.        0.0
      OSSO-4           2        22.       -42.        0.0        22.       -42.        0.0
      OSSO-4           3        25.       -15.        0.0        25.       -15.        0.0
      OSSO-4           4        29.         7.        0.0        29.         7.        0.0
      OSSO-4           5        31.        18.        0.0        31.        18.        0.0
      OSSO-4           6        33.        29.        0.0        33.        29.        0.0
      OSSO-4           7        32.        34.        0.0        32.        34.        0.0
      OSSO-4           8        28.        38.        0.0        28.        38.        0.0
      OSSO-4           9        21.        41.        0.0        21.        41.        0.0
      OSSO-4          10        14.        44.        0.0        14.        44.        0.0
      OSSO-4          11         5.        45.        0.0         5.        45.        0.0
      OSSO-4          12        -4.        43.        0.0        -4.        43.        0.0
      OSSO-4          13        -8.        41.        0.0        -8.        41.        0.0
      OSSO-4          14       -15.        34.        0.0       -15.        34.        0.0
      OSSO-4          15       -18.        26.        0.0       -18.        26.        0.0
      OSSO-4          16       -19.        17.        0.0       -19.        17.        0.0
      OSSO-4          17       -17.         8.        0.0       -17.         8.        0.0
      OSSO-4          18       -14.         4.        0.0       -14.         4.        0.0
      OSSO-4          19       -10.         2.        0.0       -10.         2.        0.0
      OSSO-4          20        -7.        -1.        0.0        -7.        -1.        0.0
      OSSO-4          21        -6.        -4.        0.0        -6.        -4.        0.0
      OSSO-4          22        -6.        -7.        0.0        -6.        -7.        0.0
      OSSO-4          23        -4.       -14.        0.0        -4.       -14.        0.0
      OSSO-4          24        -4.       -25.        0.0        -4.       -25.        0.0
      OSSO-4          25         5.       -42.        0.0         5.       -42.        0.0
      OSSO-4          26        14.       -42.        0.0        14.       -42.        0.0
      OSSO-4          27        23.       -33.        0.0        23.       -33.        0.0
      OSSO-4          28        24.       -24.        0.0        24.       -24.        0.0
      OSSO-4          29        27.        -4.        0.0        27.        -4.        0.0
      OSSO-4          30        -4.       -34.        0.0        -4.       -34.        0.0
      OSSO-4          31        -3.         1.        0.0        -3.         1.        0.0
      OSSO-4          32         2.        -6.        0.0         2.        -6.        0.0
      OSSO-4          33        -4.         5.        0.0        -4.         5.        0.0
      OSSO-4          34        -3.        33.        0.0        -3.        33.        0.0
      OSSO-4          35        -8.         9.        0.0        -8.         9.        0.0
      OSSO-4          36  -345.E-03         3.        0.0  -341.E-03         3.        0.0
      OSSO-4          37         2.         1.        0.0         2.         1.        0.0
      OSSO-4          38        17.        37.        0.0        17.        37.        0.0
      OSSO-4          39        21.        34.        0.0        21.        34.        0.0
      OSSO-4          40         8.         5.        0.0         8.         5.        0.0
      OSSO-4          41         6.  -850.E-03        0.0         6.  -850.E-03        0.0
      OSSO-4          42        24.        31.        0.0        24.        31.        0.0
      OSSO-4          43        19.        28.        0.0        19.        28.        0.0
      OSSO-4          44        11.        34.        0.0        11.        34.        0.0
      OSSO-4          45         4.         5.        0.0         4.         5.        0.0
      OSSO-4          46        15.        31.        0.0        15.        31.        0.0
      OSSO-4          47  -224.E-03         6.        0.0  -221.E-03         6.        0.0
      OSSO-4          48         5.       -33.        0.0         5.       -33.        0.0
      OSSO-4          49       -14.        17.        0.0       -14.        17.        0.0
      OSSO-4          50       -12.        23.        0.0       -12.        23.        0.0
      OSSO-4          51        16.       -14.        0.0        16.       -14.        0.0
      OSSO-4          52        15.       -24.        0.0        15.       -24.        0.0
      OSSO-4          53   529.E-03        10.        0.0   533.E-03        10.        0.0
      OSSO-4          54         7.        11.        0.0         7.        11.        0.0
      OSSO-4          55         6.        31.        0.0         6.        31.        0.0
      OSSO-4          56        11.        -3.        0.0        11.        -3.        0.0
      OSSO-4          57        13.         5.        0.0        13.         5.        0.0
      OSSO-4          58        13.        12.        0.0        13.        12.        0.0
      OSSO-4          59        -8.        13.        0.0        -8.        13.        0.0
      OSSO-4          60        21.         6.        0.0        21.         6.        0.0
      OSSO-4          61         6.       -12.        0.0         6.       -12.        0.0
      OSSO-4          62         1.        29.        0.0         1.        29.        0.0
      OSSO-4          63        19.        25.        0.0        19.        25.        0.0
      OSSO-4          64        10.        25.        0.0        10.        25.        0.0
      OSSO-4          65        -8.        29.        0.0        -8.        29.        0.0
      OSSO-4          66        -6.        19.        0.0        -6.        19.        0.0
      OSSO-4          67        11.        18.        0.0        11.        18.        0.0
      OSSO-4          68         6.       -24.        0.0         6.       -24.        0.0
      OSSO-4          69         3.        16.        0.0         3.        16.        0.0
      OSSO-4          70        19.        19.        0.0        19.        19.        0.0
      OSSO-4          71   150.E-03        23.        0.0   155.E-03        23.        0.0
      OSSO-4          72        21.        14.        0.0        21.        14.        0.0
      OSSO-4          73        14.       -33.        0.0        14.       -33.        0.0
      OSSO-4          74        -1.        -2.        0.0        -1.        -2.        0.0
      OSSO-4          75        19.        -4.        0.0        19.        -4.        0.0
      OSSO-4          76        -4.        10.        0.0        -4.        10.        0.0
      OSSO-4          77       -12.        10.        0.0       -12.        10.        0.0
      OSSO-4          78       -14.        11.        0.0       -14.        11.        0.0
      OSSO-4          79         2.        36.        0.0         2.        36.        0.0
      OSSO-4          80         8.        39.        0.0         8.        39.        0.0
      OSSO-4          81        13.        40.        0.0        13.        40.        0.0
      OSSO-4          82        26.        26.        0.0        26.        26.        0.0
      OSSO-4          83        26.        21.        0.0        26.        21.        0.0
      OSSO-4          84       -10.        15.        0.0       -10.        15.        0.0
      OSSO-4          85        -4.        15.        0.0        -4.        15.        0.0
      OSSO-4          86         4.         9.        0.0         4.         9.        0.0
      OSSO-4          87        14.       -38.        0.0        14.       -38.        0.0
      OSSO-4          88        10.       -33.        0.0        10.       -33.        0.0
      OSSO-4          89         5.       -38.        0.0         5.       -38.        0.0
      OSSO-4          90         9.       -42.        0.0         9.       -42.        0.0
      OSSO-4          91   918.E-03       -33.        0.0   918.E-03       -33.        0.0
      OSSO-4          92        -4.       -38.        0.0        -4.       -38.        0.0
      OSSO-4          93   625.E-03       -42.        0.0   625.E-03       -42.        0.0
      OSSO-4          94   172.E-03        -4.        0.0   175.E-03        -4.        0.0
      OSSO-4          95         4.        -3.        0.0         4.        -3.        0.0
      OSSO-4          96         4.   245.E-03        0.0         4.   245.E-03        0.0
      OSSO-4          97   480.E-03  -253.E-03        0.0   483.E-03  -253.E-03        0.0
      OSSO-4          98         1.       -24.        0.0         1.       -24.        0.0
      OSSO-4          99         6.       -18.        0.0         6.       -18.        0.0
      OSSO-4         100         1.       -13.        0.0         1.       -13.        0.0
      OSSO-4         101        -4.       -19.        0.0        -4.       -19.        0.0
      OSSO-4         102   898.E-03         2.        0.0   902.E-03         2.        0.0
      OSSO-4         103        -2.         2.        0.0        -2.         2.        0.0
      OSSO-4         104        -2.  -296.E-03        0.0        -2.  -296.E-03        0.0
      OSSO-4         105        -2.        -6.        0.0        -2.        -6.        0.0
      OSSO-4         106        -5.       -11.        0.0        -5.       -11.        0.0
      OSSO-4         107         4.        -9.        0.0         4.        -9.        0.0
      OSSO-4         108        -5.    -4.E-03        0.0        -5.    -4.E-03        0.0
      OSSO-4         109        -7.        -3.        0.0        -7.        -3.        0.0
      OSSO-4         110        -3.        -3.        0.0        -3.        -3.        0.0
      OSSO-4         111        -4.         3.        0.0        -4.         3.        0.0
      OSSO-4         112        -7.         3.        0.0        -7.         3.        0.0
      OSSO-4         113        -8.   551.E-03        0.0        -8.   552.E-03        0.0
      OSSO-4         114         6.         5.        0.0         6.         5.        0.0
      OSSO-4         115         7.         8.        0.0         7.         8.        0.0
      OSSO-4         116         5.        10.        0.0         5.        10.        0.0
      OSSO-4         117         4.         7.        0.0         4.         7.        0.0
      OSSO-4         118         6.        42.        0.0         6.        42.        0.0
      OSSO-4         119        10.        40.        0.0        10.        40.        0.0
      OSSO-4         120        14.        42.        0.0        14.        42.        0.0
      OSSO-4         121        10.        45.        0.0        10.        45.        0.0
      OSSO-4         122        15.        39.        0.0        15.        39.        0.0
      OSSO-4         123        19.        39.        0.0        19.        39.        0.0
      OSSO-4         124        18.        43.        0.0        18.        43.        0.0
      OSSO-4         125         3.         3.        0.0         3.         3.        0.0
      OSSO-4         126         2.         6.        0.0         2.         6.        0.0
      OSSO-4         127  -285.E-03         4.        0.0  -281.E-03         4.        0.0
      OSSO-4         128       -12.        38.        0.0       -12.        38.        0.0
      OSSO-4         129       -11.        32.        0.0       -11.        32.        0.0
      OSSO-4         130        -5.        31.        0.0        -5.        31.        0.0
      OSSO-4         131        -6.        37.        0.0        -6.        37.        0.0
      OSSO-4         132       -15.        25.        0.0       -15.        25.        0.0
      OSSO-4         133       -10.        26.        0.0       -10.        26.        0.0
      OSSO-4         134       -17.        30.        0.0       -17.        30.        0.0
      OSSO-4         135        -2.         5.        0.0        -2.         5.        0.0
      OSSO-4         136       -11.        12.        0.0       -11.        12.        0.0
      OSSO-4         137       -10.         9.        0.0       -10.         9.        0.0
      OSSO-4         138        -8.        11.        0.0        -8.        11.        0.0
      OSSO-4         139        -9.        14.        0.0        -9.        14.        0.0
      OSSO-4         140       -12.         3.        0.0       -12.         3.        0.0
      OSSO-4         141        -9.         5.        0.0        -9.         5.        0.0
      OSSO-4         142       -13.         7.        0.0       -13.         7.        0.0
      OSSO-4         143        -4.         7.        0.0        -4.         7.        0.0
      OSSO-4         144        -6.         9.        0.0        -6.         9.        0.0
      OSSO-4         145        19.        36.        0.0        19.        36.        0.0
      OSSO-4         146        24.        36.        0.0        24.        36.        0.0
      OSSO-4         147        24.        40.        0.0        24.        40.        0.0
      OSSO-4         148        22.        29.        0.0        22.        29.        0.0
      OSSO-4         149        23.        32.        0.0        23.        32.        0.0
      OSSO-4         150        18.        32.        0.0        18.        32.        0.0
      OSSO-4         151        17.        29.        0.0        17.        29.        0.0
      OSSO-4         152        28.        32.        0.0        28.        32.        0.0
      OSSO-4         153        30.        37.        0.0        30.        37.        0.0
      OSSO-4         154        20.       -24.        0.0        20.       -24.        0.0
      OSSO-4         155        25.       -20.        0.0        25.       -20.        0.0
      OSSO-4         156        21.       -15.        0.0        21.       -15.        0.0
      OSSO-4         157        16.       -19.        0.0        16.       -19.        0.0
      OSSO-4         158        23.       -38.        0.0        23.       -38.        0.0
      OSSO-4         159        19.       -33.        0.0        19.       -33.        0.0
      OSSO-4         160        18.       -42.        0.0        18.       -42.        0.0
      OSSO-4         161        11.       -13.        0.0        11.       -13.        0.0
      OSSO-4         162        10.       -24.        0.0        10.       -24.        0.0
      OSSO-4         163         9.        -2.        0.0         9.        -2.        0.0
      OSSO-4         164        12.   884.E-03        0.0        12.   884.E-03        0.0
      OSSO-4         165        11.         5.        0.0        11.         5.        0.0
      OSSO-4         166         7.         2.        0.0         7.         2.        0.0
      OSSO-4         167        -6.        -5.        0.0        -6.        -5.        0.0
      OSSO-4         168   667.E-03        26.        0.0   672.E-03        26.        0.0
      OSSO-4         169         5.        24.        0.0         5.        24.        0.0
      OSSO-4         170         8.        28.        0.0         8.        28.        0.0
      OSSO-4         171         4.        30.        0.0         4.        30.        0.0
      OSSO-4         172         6.       -28.        0.0         6.       -28.        0.0
      OSSO-4         173        -4.       -29.        0.0        -4.       -29.        0.0
      OSSO-4         174       -19.        13.        0.0       -19.        13.        0.0
      OSSO-4         175       -16.        10.        0.0       -16.        10.        0.0
      OSSO-4         176       -14.        14.        0.0       -14.        14.        0.0
      OSSO-4         177       -17.        17.        0.0       -17.        17.        0.0
      OSSO-4         178  -870.E-03        35.        0.0  -865.E-03        35.        0.0
      OSSO-4         179        -1.        31.        0.0        -1.        31.        0.0
      OSSO-4         180         4.        34.        0.0         4.        34.        0.0
      OSSO-4         181        -6.        42.        0.0        -6.        42.        0.0
      OSSO-4         182        -1.        40.        0.0        -1.        40.        0.0
      OSSO-4         183       -13.        10.        0.0       -13.        10.        0.0
      OSSO-4         184       -12.        16.        0.0       -12.        16.        0.0
      OSSO-4         185        13.         9.        0.0        13.         9.        0.0
      OSSO-4         186        10.        12.        0.0        10.        12.        0.0
      OSSO-4         187        14.        36.        0.0        14.        36.        0.0
      OSSO-4         188        13.        32.        0.0        13.        32.        0.0
      OSSO-4         189        15.        25.        0.0        15.        25.        0.0
      OSSO-4         190        11.        22.        0.0        11.        22.        0.0
      OSSO-4         191        15.        19.        0.0        15.        19.        0.0
      OSSO-4         192        19.        22.        0.0        19.        22.        0.0
      OSSO-4         193        22.        20.        0.0        22.        20.        0.0
      OSSO-4         194        20.        17.        0.0        20.        17.        0.0
      OSSO-4         195        26.        16.        0.0        26.        16.        0.0
      OSSO-4         196        28.        20.        0.0        28.        20.        0.0
      OSSO-4         197        26.        -9.        0.0        26.        -9.        0.0
      OSSO-4         198        23.        -4.        0.0        23.        -4.        0.0
      OSSO-4         199        18.        -9.        0.0        18.        -9.        0.0
      OSSO-4         200        19.        26.        0.0        19.        26.        0.0
      OSSO-4         201        22.        25.        0.0        22.        25.        0.0
      OSSO-4         202        25.        28.        0.0        25.        28.        0.0
      OSSO-4         203        33.        32.        0.0        33.        32.        0.0
      OSSO-4         204        29.        28.        0.0        29.        28.        0.0
      OSSO-4         205         5.        38.        0.0         5.        38.        0.0
      OSSO-4         206         9.        33.        0.0         9.        33.        0.0
      OSSO-4         207         9.        37.        0.0         9.        37.        0.0
      OSSO-4         208        -6.        14.        0.0        -6.        14.        0.0
      OSSO-4         209        -5.        17.        0.0        -5.        17.        0.0
      OSSO-4         210        -8.        17.        0.0        -8.        17.        0.0
      OSSO-4         211        -9.        21.        0.0        -9.        21.        0.0
      OSSO-4         212       -13.        20.        0.0       -13.        20.        0.0
      OSSO-4         213         2.        20.        0.0         2.        20.        0.0
      OSSO-4         214         7.        17.        0.0         7.        17.        0.0
      OSSO-4         215   152.E-03         8.        0.0   156.E-03         8.        0.0
      OSSO-4         216        -2.        10.        0.0        -2.        10.        0.0
      OSSO-4         217        15.       -28.        0.0        15.       -28.        0.0
      OSSO-4         218        24.       -29.        0.0        24.       -29.        0.0
      OSSO-4         219       -19.        22.        0.0       -19.        22.        0.0
      OSSO-4         220        -4.        12.        0.0        -4.        12.        0.0
      OSSO-4         221        -4.        26.        0.0        -4.        26.        0.0
      OSSO-4         222         9.        -8.        0.0         9.        -8.        0.0
      OSSO-4         223        21.        10.        0.0        21.        10.        0.0
      OSSO-4         224        25.         6.        0.0        25.         6.        0.0
      OSSO-4         225        30.        13.        0.0        30.        13.        0.0
      OSSO-4         226         2.         9.        0.0         2.         9.        0.0
      OSSO-4         227         5.        13.        0.0         5.        13.        0.0
      OSSO-4         228         2.        13.        0.0         2.        13.        0.0
      OSSO-4         229        13.        28.        0.0        13.        28.        0.0
      OSSO-4         230        20.   787.E-03        0.0        20.   786.E-03        0.0
      OSSO-4         231        17.         5.        0.0        17.         5.        0.0
      OSSO-4         232        15.        -4.        0.0        15.        -4.        0.0
      OSSO-4         233        17.        13.        0.0        17.        13.        0.0
      OSSO-4         234        12.        15.        0.0        12.        15.        0.0
      OSSO-4         235        28.         2.        0.0        28.         2.        0.0
      OSSO-4         236        -3.        21.        0.0        -3.        21.        0.0
      OSSO-4         237        26.        24.        0.0        26.        24.        0.0
      OSSO-4         238  -363.E-03        15.        0.0  -359.E-03        15.        0.0
      OSSO-4         239       -16.         6.        0.0       -16.         6.        0.0
      OSSO-4         240   667.E-03        44.        0.0   673.E-03        44.        0.0
      OSSO-4         241        32.        23.        0.0        32.        23.        0.0


  Part Instance     Node ID  Attached elements   S, Mises
----------------------------------------------------------
    ASSEMBLY           1          1    NoValue
    ASSEMBLY           2          2    NoValue
    ASSEMBLY           3          3    NoValue
    ASSEMBLY           3          4    NoValue
      OSSO-4           1          2   872.E-03
      OSSO-4           2         23         2.
      OSSO-4           3         22   223.E-03
      OSSO-4           3         38   223.E-03
      OSSO-4           4         52   178.E-03
      OSSO-4           4         58   178.E-03
      OSSO-4           5         37   245.E-03
      OSSO-4           5         52   245.E-03
      OSSO-4           5         67   245.E-03
      OSSO-4           6         40   285.E-03
      OSSO-4           6         67   285.E-03
      OSSO-4           7         21   896.E-03
      OSSO-4           7         40   896.E-03
      OSSO-4           8         19   381.E-03
      OSSO-4           8         21   381.E-03
      OSSO-4           9         11   103.E-03
      OSSO-4           9         19   103.E-03
      OSSO-4          10         10   144.E-03
      OSSO-4          10         11   144.E-03
      OSSO-4          11         10   305.E-03
      OSSO-4          11         65   305.E-03
      OSSO-4          12         31   840.E-03
      OSSO-4          12         65   840.E-03
      OSSO-4          13         13         2.
      OSSO-4          13         31         2.
      OSSO-4          14         13   432.E-03
      OSSO-4          14         14   432.E-03
      OSSO-4          15         14   156.E-03
      OSSO-4          15         47   156.E-03
      OSSO-4          16         29   142.E-03
      OSSO-4          16         47   142.E-03
      OSSO-4          17         29    81.E-03
      OSSO-4          17         64    81.E-03
      OSSO-4          18         17   108.E-03
      OSSO-4          18         64   108.E-03
      OSSO-4          19          8   540.E-03
      OSSO-4          19         17   540.E-03
      OSSO-4          19         18   540.E-03
      OSSO-4          20          7   752.E-03
      OSSO-4          20          8   752.E-03
      OSSO-4          21          7   917.E-03
      OSSO-4          21         26   917.E-03
      OSSO-4          22          6   587.E-03
      OSSO-4          22         26   587.E-03
      OSSO-4          23          4   389.E-03
      OSSO-4          23          6   389.E-03
      OSSO-4          24          4    85.E-03
      OSSO-4          24         28    85.E-03
      OSSO-4          25          1   219.E-03
      OSSO-4          25          2   219.E-03
      OSSO-4          26          1   443.E-03
      OSSO-4          26         23   443.E-03
      OSSO-4          27         23   997.E-03
      OSSO-4          27         46   997.E-03
      OSSO-4          28         22   532.E-03
      OSSO-4          28         46   532.E-03
      OSSO-4          29         38    49.E-03
      OSSO-4          29         58    49.E-03
      OSSO-4          30          2   486.E-03
      OSSO-4          30         28   486.E-03
      OSSO-4          31          5   446.E-03
      OSSO-4          31          7   446.E-03
      OSSO-4          31          8   446.E-03
      OSSO-4          31         15   446.E-03
      OSSO-4          32          3   448.E-03
      OSSO-4          32          6   448.E-03
      OSSO-4          32         26   448.E-03
      OSSO-4          32         50   448.E-03
      OSSO-4          33          8   449.E-03
      OSSO-4          33         15   449.E-03
      OSSO-4          33         18   449.E-03
      OSSO-4          33         45   449.E-03
      OSSO-4          34         13         1.
      OSSO-4          34         30         1.
      OSSO-4          34         31         1.
      OSSO-4          34         49         1.
      OSSO-4          35         16   422.E-03
      OSSO-4          35         17   422.E-03
      OSSO-4          35         18   422.E-03
      OSSO-4          35         48   422.E-03
      OSSO-4          36          5   377.E-03
      OSSO-4          36         12   377.E-03
      OSSO-4          36         15   377.E-03
      OSSO-4          37          3   354.E-03
      OSSO-4          37          5   354.E-03
      OSSO-4          37         12   354.E-03
      OSSO-4          37         33   354.E-03
      OSSO-4          38         11    89.E-03
      OSSO-4          38         19    89.E-03
      OSSO-4          38         35    89.E-03
      OSSO-4          38         66    89.E-03
      OSSO-4          39         19   205.E-03
      OSSO-4          39         20   205.E-03
      OSSO-4          39         21   205.E-03
      OSSO-4          39         35   205.E-03
      OSSO-4          40          9   296.E-03
      OSSO-4          40         25   296.E-03
      OSSO-4          40         33   296.E-03
      OSSO-4          40         34   296.E-03
      OSSO-4          41          3   328.E-03
      OSSO-4          41         25   328.E-03
      OSSO-4          41         33   328.E-03
      OSSO-4          41         50   328.E-03
      OSSO-4          42         20   306.E-03
      OSSO-4          42         21   306.E-03
      OSSO-4          42         39   306.E-03
      OSSO-4          42         40   306.E-03
      OSSO-4          43         20   151.E-03
      OSSO-4          43         39   151.E-03
      OSSO-4          43         70   151.E-03
      OSSO-4          44         35    76.E-03
      OSSO-4          44         41    76.E-03
      OSSO-4          44         54    76.E-03
      OSSO-4          44         66    76.E-03
      OSSO-4          45          9   344.E-03
      OSSO-4          45         12   344.E-03
      OSSO-4          45         33   344.E-03
      OSSO-4          45         69   344.E-03
      OSSO-4          46         20   170.E-03
      OSSO-4          46         35   170.E-03
      OSSO-4          46         54   170.E-03
      OSSO-4          46         70   170.E-03
      OSSO-4          47         12   389.E-03
      OSSO-4          47         15   389.E-03
      OSSO-4          47         45   389.E-03
      OSSO-4          47         69   389.E-03
      OSSO-4          48          1   482.E-03
      OSSO-4          48          2   482.E-03
      OSSO-4          48         28   482.E-03
      OSSO-4          48         51   482.E-03
      OSSO-4          49         29   250.E-03
      OSSO-4          49         32   250.E-03
      OSSO-4          49         43   250.E-03
      OSSO-4          49         47   250.E-03
      OSSO-4          50         14   391.E-03
      OSSO-4          50         43   391.E-03
      OSSO-4          50         47   391.E-03
      OSSO-4          50         60   391.E-03
      OSSO-4          51         22   404.E-03
      OSSO-4          51         24   404.E-03
      OSSO-4          51         38   404.E-03
      OSSO-4          51         59   404.E-03
      OSSO-4          52         22   578.E-03
      OSSO-4          52         24   578.E-03
      OSSO-4          52         46   578.E-03
      OSSO-4          52         51   578.E-03
      OSSO-4          53         45   414.E-03
      OSSO-4          53         53   414.E-03
      OSSO-4          53         68   414.E-03
      OSSO-4          53         69   414.E-03
      OSSO-4          54          9   328.E-03
      OSSO-4          54         34   328.E-03
      OSSO-4          54         53   328.E-03
      OSSO-4          54         62   328.E-03
      OSSO-4          55         27   361.E-03
      OSSO-4          55         30   361.E-03
      OSSO-4          55         41   361.E-03
      OSSO-4          55         54   361.E-03
      OSSO-4          56         25   320.E-03
      OSSO-4          56         50   320.E-03
      OSSO-4          56         55   320.E-03
      OSSO-4          56         59   320.E-03
      OSSO-4          57         25   233.E-03
      OSSO-4          57         34   233.E-03
      OSSO-4          57         55   233.E-03
      OSSO-4          57         56   233.E-03
      OSSO-4          58         34   241.E-03
      OSSO-4          58         56   241.E-03
      OSSO-4          58         57   241.E-03
      OSSO-4          58         62   241.E-03
      OSSO-4          59         16   410.E-03
      OSSO-4          59         42   410.E-03
      OSSO-4          59         48   410.E-03
      OSSO-4          60         52   125.E-03
      OSSO-4          60         55   125.E-03
      OSSO-4          60         56   125.E-03
      OSSO-4          60         58   125.E-03
      OSSO-4          61          4   459.E-03
      OSSO-4          61          6   459.E-03
      OSSO-4          61         24   459.E-03
      OSSO-4          61         50   459.E-03
      OSSO-4          61         59   459.E-03
      OSSO-4          62         27   484.E-03
      OSSO-4          62         30   484.E-03
      OSSO-4          62         49   484.E-03
      OSSO-4          63         36   203.E-03
      OSSO-4          63         39   203.E-03
      OSSO-4          63         61   203.E-03
      OSSO-4          63         70   203.E-03
      OSSO-4          64         27   287.E-03
      OSSO-4          64         36   287.E-03
      OSSO-4          64         44   287.E-03
      OSSO-4          64         54   287.E-03
      OSSO-4          64         70   287.E-03
      OSSO-4          65         13   745.E-03
      OSSO-4          65         14   745.E-03
      OSSO-4          65         49   745.E-03
      OSSO-4          65         60   745.E-03
      OSSO-4          66         42   466.E-03
      OSSO-4          66         43   466.E-03
      OSSO-4          66         60   466.E-03
      OSSO-4          66         63   466.E-03
      OSSO-4          67         36   289.E-03
      OSSO-4          67         44   289.E-03
      OSSO-4          67         57   289.E-03
      OSSO-4          67         62   289.E-03
      OSSO-4          68          4   492.E-03
      OSSO-4          68         24   492.E-03
      OSSO-4          68         28   492.E-03
      OSSO-4          68         51   492.E-03
      OSSO-4          69         44   418.E-03
      OSSO-4          69         53   418.E-03
      OSSO-4          69         62   418.E-03
      OSSO-4          69         63   418.E-03
      OSSO-4          69         68   418.E-03
      OSSO-4          70         36   174.E-03
      OSSO-4          70         37   174.E-03
      OSSO-4          70         57   174.E-03
      OSSO-4          70         61   174.E-03
      OSSO-4          71         27   539.E-03
      OSSO-4          71         44   539.E-03
      OSSO-4          71         49   539.E-03
      OSSO-4          71         60   539.E-03
      OSSO-4          71         63   539.E-03
      OSSO-4          72         37   139.E-03
      OSSO-4          72         52   139.E-03
      OSSO-4          72         56   139.E-03
      OSSO-4          72         57   139.E-03
      OSSO-4          73          1   735.E-03
      OSSO-4          73         23   735.E-03
      OSSO-4          73         46   735.E-03
      OSSO-4          73         51   735.E-03
      OSSO-4          74          3   368.E-03
      OSSO-4          74          5   368.E-03
      OSSO-4          74          7   368.E-03
      OSSO-4          74         26   368.E-03
      OSSO-4          75         38   211.E-03
      OSSO-4          75         55   211.E-03
      OSSO-4          75         58   211.E-03
      OSSO-4          75         59   211.E-03
      OSSO-4          76         18   437.E-03
      OSSO-4          76         45   437.E-03
      OSSO-4          76         48   437.E-03
      OSSO-4          76         68   437.E-03
      OSSO-4          77         16   332.E-03
      OSSO-4          77         17   332.E-03
      OSSO-4          77         32   332.E-03
      OSSO-4          77         64   332.E-03
      OSSO-4          78         29   229.E-03
      OSSO-4          78         32   229.E-03
      OSSO-4          78         64   229.E-03
      OSSO-4          79         30   640.E-03
      OSSO-4          79         31   640.E-03
      OSSO-4          79         41   640.E-03
      OSSO-4          79         65   640.E-03
      OSSO-4          80         10   195.E-03
      OSSO-4          80         41   195.E-03
      OSSO-4          80         65   195.E-03
      OSSO-4          80         66   195.E-03
      OSSO-4          81         10    83.E-03
      OSSO-4          81         11    83.E-03
      OSSO-4          81         66    83.E-03
      OSSO-4          82         39   323.E-03
      OSSO-4          82         40   323.E-03
      OSSO-4          82         61   323.E-03
      OSSO-4          82         67   323.E-03
      OSSO-4          83         37   221.E-03
      OSSO-4          83         61   221.E-03
      OSSO-4          83         67   221.E-03
      OSSO-4          84         16   376.E-03
      OSSO-4          84         32   376.E-03
      OSSO-4          84         42   376.E-03
      OSSO-4          84         43   376.E-03
      OSSO-4          85         42   468.E-03
      OSSO-4          85         48   468.E-03
      OSSO-4          85         63   468.E-03
      OSSO-4          85         68   468.E-03
      OSSO-4          86          9   362.E-03
      OSSO-4          86         53   362.E-03
      OSSO-4          86         69   362.E-03
      OSSO-4          87          1   607.E-03
      OSSO-4          87         23   607.E-03
      OSSO-4          88          1   540.E-03
      OSSO-4          88         51   540.E-03
      OSSO-4          89          1   351.E-03
      OSSO-4          89          2   351.E-03
      OSSO-4          90          1   326.E-03
      OSSO-4          91          2   317.E-03
      OSSO-4          91         28   317.E-03
      OSSO-4          92          2   658.E-03
      OSSO-4          93          2   454.E-03
      OSSO-4          94          3   401.E-03
      OSSO-4          94         26   401.E-03
      OSSO-4          95          3   386.E-03
      OSSO-4          95         50   386.E-03
      OSSO-4          96          3   338.E-03
      OSSO-4          96         33   338.E-03
      OSSO-4          97          3   374.E-03
      OSSO-4          97          5   374.E-03
      OSSO-4          98          4   256.E-03
      OSSO-4          98         28   256.E-03
      OSSO-4          99          4   479.E-03
      OSSO-4          99         24   479.E-03
      OSSO-4         100          4   399.E-03
      OSSO-4         100          6   399.E-03
      OSSO-4         101          4   169.E-03
      OSSO-4         102          5   364.E-03
      OSSO-4         102         12   364.E-03
      OSSO-4         103          5   424.E-03
      OSSO-4         103         15   424.E-03
      OSSO-4         104          5   420.E-03
      OSSO-4         104          7   420.E-03
      OSSO-4         105          6   482.E-03
      OSSO-4         105         26   482.E-03
      OSSO-4         106          6   484.E-03
      OSSO-4         107          6   444.E-03
      OSSO-4         107         50   444.E-03
      OSSO-4         108          7   579.E-03
      OSSO-4         108          8   579.E-03
      OSSO-4         109          7   798.E-03
      OSSO-4         110          7   627.E-03
      OSSO-4         110         26   627.E-03
      OSSO-4         111          8   424.E-03
      OSSO-4         111         15   424.E-03
      OSSO-4         112          8   455.E-03
      OSSO-4         112         18   455.E-03
      OSSO-4         113          8   713.E-03
      OSSO-4         114          9   319.E-03
      OSSO-4         114         33   319.E-03
      OSSO-4         115          9   312.E-03
      OSSO-4         115         34   312.E-03
      OSSO-4         116          9   344.E-03
      OSSO-4         116         53   344.E-03
      OSSO-4         117          9   353.E-03
      OSSO-4         117         69   353.E-03
      OSSO-4         118         10   176.E-03
      OSSO-4         118         65   176.E-03
      OSSO-4         119         10    96.E-03
      OSSO-4         119         66    96.E-03
      OSSO-4         120         10   103.E-03
      OSSO-4         120         11   103.E-03
      OSSO-4         121         10    92.E-03
      OSSO-4         122         11    66.E-03
      OSSO-4         122         66    66.E-03
      OSSO-4         123         11    97.E-03
      OSSO-4         123         19    97.E-03
      OSSO-4         124         11   135.E-03
      OSSO-4         125         12   345.E-03
      OSSO-4         125         33   345.E-03
      OSSO-4         126         12   366.E-03
      OSSO-4         126         69   366.E-03
      OSSO-4         127         12   386.E-03
      OSSO-4         127         15   386.E-03
      OSSO-4         128         13   823.E-03
      OSSO-4         129         13   395.E-03
      OSSO-4         129         14   395.E-03
      OSSO-4         130         13   829.E-03
      OSSO-4         130         49   829.E-03
      OSSO-4         131         13         1.
      OSSO-4         131         31         1.
      OSSO-4         132         14   264.E-03
      OSSO-4         132         47   264.E-03
      OSSO-4         133         14   519.E-03
      OSSO-4         133         60   519.E-03
      OSSO-4         134         14   239.E-03
      OSSO-4         135         15   420.E-03
      OSSO-4         135         45   420.E-03
      OSSO-4         136         16   337.E-03
      OSSO-4         136         32   337.E-03
      OSSO-4         137         16   377.E-03
      OSSO-4         137         17   377.E-03
      OSSO-4         138         16   411.E-03
      OSSO-4         138         48   411.E-03
      OSSO-4         139         16   391.E-03
      OSSO-4         139         42   391.E-03
      OSSO-4         140         17   281.E-03
      OSSO-4         141         17   419.E-03
      OSSO-4         141         18   419.E-03
      OSSO-4         142         17   199.E-03
      OSSO-4         142         64   199.E-03
      OSSO-4         143         18   450.E-03
      OSSO-4         143         45   450.E-03
      OSSO-4         144         18   440.E-03
      OSSO-4         144         48   440.E-03
      OSSO-4         145         19   146.E-03
      OSSO-4         145         35   146.E-03
      OSSO-4         146         19   283.E-03
      OSSO-4         146         21   283.E-03
      OSSO-4         147         19    77.E-03
      OSSO-4         148         20   228.E-03
      OSSO-4         148         39   228.E-03
      OSSO-4         149         20   256.E-03
      OSSO-4         149         21   256.E-03
      OSSO-4         150         20   119.E-03
      OSSO-4         150         35   119.E-03
      OSSO-4         151         20   151.E-03
      OSSO-4         151         70   151.E-03
      OSSO-4         152         21   548.E-03
      OSSO-4         152         40   548.E-03
      OSSO-4         153         21   458.E-03
      OSSO-4         154         22   509.E-03
      OSSO-4         154         46   509.E-03
      OSSO-4         155         22   379.E-03
      OSSO-4         156         22   283.E-03
      OSSO-4         156         38   283.E-03
      OSSO-4         157         22   484.E-03
      OSSO-4         157         24   484.E-03
      OSSO-4         158         23         1.
      OSSO-4         159         23   770.E-03
      OSSO-4         159         46   770.E-03
      OSSO-4         160         23         1.
      OSSO-4         161         24   430.E-03
      OSSO-4         161         59   430.E-03
      OSSO-4         162         24   522.E-03
      OSSO-4         162         51   522.E-03
      OSSO-4         163         25   324.E-03
      OSSO-4         163         50   324.E-03
      OSSO-4         164         25   272.E-03
      OSSO-4         164         55   272.E-03
      OSSO-4         165         25   264.E-03
      OSSO-4         165         34   264.E-03
      OSSO-4         166         25   313.E-03
      OSSO-4         166         33   313.E-03
      OSSO-4         167         26   755.E-03
      OSSO-4         168         27   513.E-03
      OSSO-4         168         49   513.E-03
      OSSO-4         169         27   398.E-03
      OSSO-4         169         44   398.E-03
      OSSO-4         170         27   318.E-03
      OSSO-4         170         54   318.E-03
      OSSO-4         171         27   413.E-03
      OSSO-4         171         30   413.E-03
      OSSO-4         172         28   482.E-03
      OSSO-4         172         51   482.E-03
      OSSO-4         173         28   281.E-03
      OSSO-4         174         29   109.E-03
      OSSO-4         175         29   155.E-03
      OSSO-4         175         64   155.E-03
      OSSO-4         176         29   236.E-03
      OSSO-4         176         32   236.E-03
      OSSO-4         177         29   195.E-03
      OSSO-4         177         47   195.E-03
      OSSO-4         178         30   875.E-03
      OSSO-4         178         31   875.E-03
      OSSO-4         179         30   644.E-03
      OSSO-4         179         49   644.E-03
      OSSO-4         180         30   349.E-03
      OSSO-4         180         41   349.E-03
      OSSO-4         181         31         1.
      OSSO-4         182         31   705.E-03
      OSSO-4         182         65   705.E-03
      OSSO-4         183         32   275.E-03
      OSSO-4         183         64   275.E-03
      OSSO-4         184         32   313.E-03
      OSSO-4         184         43   313.E-03
      OSSO-4         185         34   235.E-03
      OSSO-4         185         56   235.E-03
      OSSO-4         186         34   283.E-03
      OSSO-4         186         62   283.E-03
      OSSO-4         187         35    65.E-03
      OSSO-4         187         66    65.E-03
      OSSO-4         188         35   119.E-03
      OSSO-4         188         54   119.E-03
      OSSO-4         189         36   226.E-03
      OSSO-4         189         70   226.E-03
      OSSO-4         190         36   291.E-03
      OSSO-4         190         44   291.E-03
      OSSO-4         191         36   220.E-03
      OSSO-4         191         57   220.E-03
      OSSO-4         192         36   191.E-03
      OSSO-4         192         61   191.E-03
      OSSO-4         193         37   178.E-03
      OSSO-4         193         61   178.E-03
      OSSO-4         194         37   155.E-03
      OSSO-4         194         57   155.E-03
      OSSO-4         195         37   164.E-03
      OSSO-4         195         52   164.E-03
      OSSO-4         196         37   231.E-03
      OSSO-4         196         67   231.E-03
      OSSO-4         197         38    84.E-03
      OSSO-4         198         38    99.E-03
      OSSO-4         198         58    99.E-03
      OSSO-4         199         38   308.E-03
      OSSO-4         199         59   308.E-03
      OSSO-4         200         39   184.E-03
      OSSO-4         200         70   184.E-03
      OSSO-4         201         39   225.E-03
      OSSO-4         201         61   225.E-03
      OSSO-4         202         39   274.E-03
      OSSO-4         202         40   274.E-03
      OSSO-4         203         40   530.E-03
      OSSO-4         204         40   260.E-03
      OSSO-4         204         67   260.E-03
      OSSO-4         205         41   332.E-03
      OSSO-4         205         65   332.E-03
      OSSO-4         206         41   217.E-03
      OSSO-4         206         54   217.E-03
      OSSO-4         207         41    84.E-03
      OSSO-4         207         66    84.E-03
      OSSO-4         208         42   437.E-03
      OSSO-4         208         48   437.E-03
      OSSO-4         209         42   468.E-03
      OSSO-4         209         63   468.E-03
      OSSO-4         210         42   414.E-03
      OSSO-4         210         43   414.E-03
      OSSO-4         211         43   432.E-03
      OSSO-4         211         60   432.E-03
      OSSO-4         212         43   310.E-03
      OSSO-4         212         47   310.E-03
      OSSO-4         213         44   471.E-03
      OSSO-4         213         63   471.E-03
      OSSO-4         214         44   351.E-03
      OSSO-4         214         62   351.E-03
      OSSO-4         215         45   398.E-03
      OSSO-4         215         69   398.E-03
      OSSO-4         216         45   419.E-03
      OSSO-4         216         68   419.E-03
      OSSO-4         217         46   637.E-03
      OSSO-4         217         51   637.E-03
      OSSO-4         218         46   755.E-03
      OSSO-4         219         47   156.E-03
      OSSO-4         220         48   453.E-03
      OSSO-4         220         68   453.E-03
      OSSO-4         221         49   609.E-03
      OSSO-4         221         60   609.E-03
      OSSO-4         222         50   389.E-03
      OSSO-4         222         59   389.E-03
      OSSO-4         223         52   130.E-03
      OSSO-4         223         56   130.E-03
      OSSO-4         224         52   112.E-03
      OSSO-4         224         58   112.E-03
      OSSO-4         225         52   221.E-03
      OSSO-4         226         53   387.E-03
      OSSO-4         226         69   387.E-03
      OSSO-4         227         53   373.E-03
      OSSO-4         227         62   373.E-03
      OSSO-4         228         53   415.E-03
      OSSO-4         228         68   415.E-03
      OSSO-4         229         54   221.E-03
      OSSO-4         229         70   221.E-03
      OSSO-4         230         55   161.E-03
      OSSO-4         230         58   161.E-03
      OSSO-4         231         55   174.E-03
      OSSO-4         231         56   174.E-03
      OSSO-4         232         55   266.E-03
      OSSO-4         232         59   266.E-03
      OSSO-4         233         56   178.E-03
      OSSO-4         233         57   178.E-03
      OSSO-4         234         57   264.E-03
      OSSO-4         234         62   264.E-03
      OSSO-4         235         58   112.E-03
      OSSO-4         236         60   513.E-03
      OSSO-4         236         63   513.E-03
      OSSO-4         237         61   243.E-03
      OSSO-4         237         67   243.E-03
      OSSO-4         238         63   444.E-03
      OSSO-4         238         68   444.E-03
      OSSO-4         239         64    81.E-03
      OSSO-4         240         65   384.E-03
      OSSO-4         241         67   278.E-03


********************************************************************************
Probe Values Report, written on Thu Oct 24 14:10:34 2024

Source
-------

   ODB: C:/temp/quad-quad-10.odb
   Step: step-1
   Frame: Increment      1: Step Time =    1.000
   Variable: S, Mises (Avg: 75)

Probe values reported at nodes

  Part Instance     Node ID            Orig. Coords                     Def. Coords          
                                 X          Y          Z          X          Y          Z    
-------------------------------------------------------------------------------------------
    ASSEMBLY           1        -6.        42.        0.0        -6.        42.        0.0
    ASSEMBLY           2        30.        37.        0.0        30.        37.        0.0
    ASSEMBLY           3         7.        18.        0.0         7.        18.        0.0
      OSSO-4           1        -4.       -42.        0.0        -4.       -42.        0.0
      OSSO-4           2        22.       -42.        0.0        22.       -42.        0.0
      OSSO-4           3        25.       -15.        0.0        25.       -15.        0.0
      OSSO-4           4        29.         7.        0.0        29.         7.        0.0
      OSSO-4           5        31.        18.        0.0        31.        18.        0.0
      OSSO-4           6        33.        29.        0.0        33.        29.        0.0
      OSSO-4           7        32.        34.        0.0        32.        34.        0.0
      OSSO-4           8        28.        38.        0.0        28.        38.        0.0
      OSSO-4           9        21.        41.        0.0        21.        41.        0.0
      OSSO-4          10        14.        44.        0.0        14.        44.        0.0
      OSSO-4          11         5.        45.        0.0         5.        45.        0.0
      OSSO-4          12        -4.        43.        0.0        -4.        43.        0.0
      OSSO-4          13        -8.        41.        0.0        -8.        41.        0.0
      OSSO-4          14       -15.        34.        0.0       -15.        34.        0.0
      OSSO-4          15       -18.        26.        0.0       -18.        26.        0.0
      OSSO-4          16       -19.        17.        0.0       -19.        17.        0.0
      OSSO-4          17       -17.         8.        0.0       -17.         8.        0.0
      OSSO-4          18       -14.         4.        0.0       -14.         4.        0.0
      OSSO-4          19       -10.         2.        0.0       -10.         2.        0.0
      OSSO-4          20        -7.        -1.        0.0        -7.        -1.        0.0
      OSSO-4          21        -6.        -4.        0.0        -6.        -4.        0.0
      OSSO-4          22        -6.        -7.        0.0        -6.        -7.        0.0
      OSSO-4          23        -4.       -14.        0.0        -4.       -14.        0.0
      OSSO-4          24        -4.       -25.        0.0        -4.       -25.        0.0
      OSSO-4          25         5.       -42.        0.0         5.       -42.        0.0
      OSSO-4          26        14.       -42.        0.0        14.       -42.        0.0
      OSSO-4          27        23.       -33.        0.0        23.       -33.        0.0
      OSSO-4          28        24.       -24.        0.0        24.       -24.        0.0
      OSSO-4          29        27.        -4.        0.0        27.        -4.        0.0
      OSSO-4          30        -4.       -34.        0.0        -4.       -34.        0.0
      OSSO-4          31        -3.         1.        0.0        -3.         1.        0.0
      OSSO-4          32         2.        -6.        0.0         2.        -6.        0.0
      OSSO-4          33        -4.         5.        0.0        -4.         5.        0.0
      OSSO-4          34        -3.        33.        0.0        -3.        33.        0.0
      OSSO-4          35        -8.         9.        0.0        -8.         9.        0.0
      OSSO-4          36  -345.E-03         3.        0.0  -341.E-03         3.        0.0
      OSSO-4          37         2.         1.        0.0         2.         1.        0.0
      OSSO-4          38        17.        37.        0.0        17.        37.        0.0
      OSSO-4          39        21.        34.        0.0        21.        34.        0.0
      OSSO-4          40         8.         5.        0.0         8.         5.        0.0
      OSSO-4          41         6.  -850.E-03        0.0         6.  -850.E-03        0.0
      OSSO-4          42        24.        31.        0.0        24.        31.        0.0
      OSSO-4          43        19.        28.        0.0        19.        28.        0.0
      OSSO-4          44        11.        34.        0.0        11.        34.        0.0
      OSSO-4          45         4.         5.        0.0         4.         5.        0.0
      OSSO-4          46        15.        31.        0.0        15.        31.        0.0
      OSSO-4          47  -224.E-03         6.        0.0  -221.E-03         6.        0.0
      OSSO-4          48         5.       -33.        0.0         5.       -33.        0.0
      OSSO-4          49       -14.        17.        0.0       -14.        17.        0.0
      OSSO-4          50       -12.        23.        0.0       -12.        23.        0.0
      OSSO-4          51        16.       -14.        0.0        16.       -14.        0.0
      OSSO-4          52        15.       -24.        0.0        15.       -24.        0.0
      OSSO-4          53   529.E-03        10.        0.0   533.E-03        10.        0.0
      OSSO-4          54         7.        11.        0.0         7.        11.        0.0
      OSSO-4          55         6.        31.        0.0         6.        31.        0.0
      OSSO-4          56        11.        -3.        0.0        11.        -3.        0.0
      OSSO-4          57        13.         5.        0.0        13.         5.        0.0
      OSSO-4          58        13.        12.        0.0        13.        12.        0.0
      OSSO-4          59        -8.        13.        0.0        -8.        13.        0.0
      OSSO-4          60        21.         6.        0.0        21.         6.        0.0
      OSSO-4          61         6.       -12.        0.0         6.       -12.        0.0
      OSSO-4          62         1.        29.        0.0         1.        29.        0.0
      OSSO-4          63        19.        25.        0.0        19.        25.        0.0
      OSSO-4          64        10.        25.        0.0        10.        25.        0.0
      OSSO-4          65        -8.        29.        0.0        -8.        29.        0.0
      OSSO-4          66        -6.        19.        0.0        -6.        19.        0.0
      OSSO-4          67        11.        18.        0.0        11.        18.        0.0
      OSSO-4          68         6.       -24.        0.0         6.       -24.        0.0
      OSSO-4          69         3.        16.        0.0         3.        16.        0.0
      OSSO-4          70        19.        19.        0.0        19.        19.        0.0
      OSSO-4          71   150.E-03        23.        0.0   155.E-03        23.        0.0
      OSSO-4          72        21.        14.        0.0        21.        14.        0.0
      OSSO-4          73        14.       -33.        0.0        14.       -33.        0.0
      OSSO-4          74        -1.        -2.        0.0        -1.        -2.        0.0
      OSSO-4          75        19.        -4.        0.0        19.        -4.        0.0
      OSSO-4          76        -4.        10.        0.0        -4.        10.        0.0
      OSSO-4          77       -12.        10.        0.0       -12.        10.        0.0
      OSSO-4          78       -14.        11.        0.0       -14.        11.        0.0
      OSSO-4          79         2.        36.        0.0         2.        36.        0.0
      OSSO-4          80         8.        39.        0.0         8.        39.        0.0
      OSSO-4          81        13.        40.        0.0        13.        40.        0.0
      OSSO-4          82        26.        26.        0.0        26.        26.        0.0
      OSSO-4          83        26.        21.        0.0        26.        21.        0.0
      OSSO-4          84       -10.        15.        0.0       -10.        15.        0.0
      OSSO-4          85        -4.        15.        0.0        -4.        15.        0.0
      OSSO-4          86         4.         9.        0.0         4.         9.        0.0
      OSSO-4          87        14.       -38.        0.0        14.       -38.        0.0
      OSSO-4          88        10.       -33.        0.0        10.       -33.        0.0
      OSSO-4          89         5.       -38.        0.0         5.       -38.        0.0
      OSSO-4          90         9.       -42.        0.0         9.       -42.        0.0
      OSSO-4          91   918.E-03       -33.        0.0   918.E-03       -33.        0.0
      OSSO-4          92        -4.       -38.        0.0        -4.       -38.        0.0
      OSSO-4          93   625.E-03       -42.        0.0   625.E-03       -42.        0.0
      OSSO-4          94   172.E-03        -4.        0.0   175.E-03        -4.        0.0
      OSSO-4          95         4.        -3.        0.0         4.        -3.        0.0
      OSSO-4          96         4.   245.E-03        0.0         4.   245.E-03        0.0
      OSSO-4          97   480.E-03  -253.E-03        0.0   483.E-03  -253.E-03        0.0
      OSSO-4          98         1.       -24.        0.0         1.       -24.        0.0
      OSSO-4          99         6.       -18.        0.0         6.       -18.        0.0
      OSSO-4         100         1.       -13.        0.0         1.       -13.        0.0
      OSSO-4         101        -4.       -19.        0.0        -4.       -19.        0.0
      OSSO-4         102   898.E-03         2.        0.0   902.E-03         2.        0.0
      OSSO-4         103        -2.         2.        0.0        -2.         2.        0.0
      OSSO-4         104        -2.  -296.E-03        0.0        -2.  -296.E-03        0.0
      OSSO-4         105        -2.        -6.        0.0        -2.        -6.        0.0
      OSSO-4         106        -5.       -11.        0.0        -5.       -11.        0.0
      OSSO-4         107         4.        -9.        0.0         4.        -9.        0.0
      OSSO-4         108        -5.    -4.E-03        0.0        -5.    -4.E-03        0.0
      OSSO-4         109        -7.        -3.        0.0        -7.        -3.        0.0
      OSSO-4         110        -3.        -3.        0.0        -3.        -3.        0.0
      OSSO-4         111        -4.         3.        0.0        -4.         3.        0.0
      OSSO-4         112        -7.         3.        0.0        -7.         3.        0.0
      OSSO-4         113        -8.   551.E-03        0.0        -8.   552.E-03        0.0
      OSSO-4         114         6.         5.        0.0         6.         5.        0.0
      OSSO-4         115         7.         8.        0.0         7.         8.        0.0
      OSSO-4         116         5.        10.        0.0         5.        10.        0.0
      OSSO-4         117         4.         7.        0.0         4.         7.        0.0
      OSSO-4         118         6.        42.        0.0         6.        42.        0.0
      OSSO-4         119        10.        40.        0.0        10.        40.        0.0
      OSSO-4         120        14.        42.        0.0        14.        42.        0.0
      OSSO-4         121        10.        45.        0.0        10.        45.        0.0
      OSSO-4         122        15.        39.        0.0        15.        39.        0.0
      OSSO-4         123        19.        39.        0.0        19.        39.        0.0
      OSSO-4         124        18.        43.        0.0        18.        43.        0.0
      OSSO-4         125         3.         3.        0.0         3.         3.        0.0
      OSSO-4         126         2.         6.        0.0         2.         6.        0.0
      OSSO-4         127  -285.E-03         4.        0.0  -281.E-03         4.        0.0
      OSSO-4         128       -12.        38.        0.0       -12.        38.        0.0
      OSSO-4         129       -11.        32.        0.0       -11.        32.        0.0
      OSSO-4         130        -5.        31.        0.0        -5.        31.        0.0
      OSSO-4         131        -6.        37.        0.0        -6.        37.        0.0
      OSSO-4         132       -15.        25.        0.0       -15.        25.        0.0
      OSSO-4         133       -10.        26.        0.0       -10.        26.        0.0
      OSSO-4         134       -17.        30.        0.0       -17.        30.        0.0
      OSSO-4         135        -2.         5.        0.0        -2.         5.        0.0
      OSSO-4         136       -11.        12.        0.0       -11.        12.        0.0
      OSSO-4         137       -10.         9.        0.0       -10.         9.        0.0
      OSSO-4         138        -8.        11.        0.0        -8.        11.        0.0
      OSSO-4         139        -9.        14.        0.0        -9.        14.        0.0
      OSSO-4         140       -12.         3.        0.0       -12.         3.        0.0
      OSSO-4         141        -9.         5.        0.0        -9.         5.        0.0
      OSSO-4         142       -13.         7.        0.0       -13.         7.        0.0
      OSSO-4         143        -4.         7.        0.0        -4.         7.        0.0
      OSSO-4         144        -6.         9.        0.0        -6.         9.        0.0
      OSSO-4         145        19.        36.        0.0        19.        36.        0.0
      OSSO-4         146        24.        36.        0.0        24.        36.        0.0
      OSSO-4         147        24.        40.        0.0        24.        40.        0.0
      OSSO-4         148        22.        29.        0.0        22.        29.        0.0
      OSSO-4         149        23.        32.        0.0        23.        32.        0.0
      OSSO-4         150        18.        32.        0.0        18.        32.        0.0
      OSSO-4         151        17.        29.        0.0        17.        29.        0.0
      OSSO-4         152        28.        32.        0.0        28.        32.        0.0
      OSSO-4         153        30.        37.        0.0        30.        37.        0.0
      OSSO-4         154        20.       -24.        0.0        20.       -24.        0.0
      OSSO-4         155        25.       -20.        0.0        25.       -20.        0.0
      OSSO-4         156        21.       -15.        0.0        21.       -15.        0.0
      OSSO-4         157        16.       -19.        0.0        16.       -19.        0.0
      OSSO-4         158        23.       -38.        0.0        23.       -38.        0.0
      OSSO-4         159        19.       -33.        0.0        19.       -33.        0.0
      OSSO-4         160        18.       -42.        0.0        18.       -42.        0.0
      OSSO-4         161        11.       -13.        0.0        11.       -13.        0.0
      OSSO-4         162        10.       -24.        0.0        10.       -24.        0.0
      OSSO-4         163         9.        -2.        0.0         9.        -2.        0.0
      OSSO-4         164        12.   884.E-03        0.0        12.   884.E-03        0.0
      OSSO-4         165        11.         5.        0.0        11.         5.        0.0
      OSSO-4         166         7.         2.        0.0         7.         2.        0.0
      OSSO-4         167        -6.        -5.        0.0        -6.        -5.        0.0
      OSSO-4         168   667.E-03        26.        0.0   672.E-03        26.        0.0
      OSSO-4         169         5.        24.        0.0         5.        24.        0.0
      OSSO-4         170         8.        28.        0.0         8.        28.        0.0
      OSSO-4         171         4.        30.        0.0         4.        30.        0.0
      OSSO-4         172         6.       -28.        0.0         6.       -28.        0.0
      OSSO-4         173        -4.       -29.        0.0        -4.       -29.        0.0
      OSSO-4         174       -19.        13.        0.0       -19.        13.        0.0
      OSSO-4         175       -16.        10.        0.0       -16.        10.        0.0
      OSSO-4         176       -14.        14.        0.0       -14.        14.        0.0
      OSSO-4         177       -17.        17.        0.0       -17.        17.        0.0
      OSSO-4         178  -870.E-03        35.        0.0  -865.E-03        35.        0.0
      OSSO-4         179        -1.        31.        0.0        -1.        31.        0.0
      OSSO-4         180         4.        34.        0.0         4.        34.        0.0
      OSSO-4         181        -6.        42.        0.0        -6.        42.        0.0
      OSSO-4         182        -1.        40.        0.0        -1.        40.        0.0
      OSSO-4         183       -13.        10.        0.0       -13.        10.        0.0
      OSSO-4         184       -12.        16.        0.0       -12.        16.        0.0
      OSSO-4         185        13.         9.        0.0        13.         9.        0.0
      OSSO-4         186        10.        12.        0.0        10.        12.        0.0
      OSSO-4         187        14.        36.        0.0        14.        36.        0.0
      OSSO-4         188        13.        32.        0.0        13.        32.        0.0
      OSSO-4         189        15.        25.        0.0        15.        25.        0.0
      OSSO-4         190        11.        22.        0.0        11.        22.        0.0
      OSSO-4         191        15.        19.        0.0        15.        19.        0.0
      OSSO-4         192        19.        22.        0.0        19.        22.        0.0
      OSSO-4         193        22.        20.        0.0        22.        20.        0.0
      OSSO-4         194        20.        17.        0.0        20.        17.        0.0
      OSSO-4         195        26.        16.        0.0        26.        16.        0.0
      OSSO-4         196        28.        20.        0.0        28.        20.        0.0
      OSSO-4         197        26.        -9.        0.0        26.        -9.        0.0
      OSSO-4         198        23.        -4.        0.0        23.        -4.        0.0
      OSSO-4         199        18.        -9.        0.0        18.        -9.        0.0
      OSSO-4         200        19.        26.        0.0        19.        26.        0.0
      OSSO-4         201        22.        25.        0.0        22.        25.        0.0
      OSSO-4         202        25.        28.        0.0        25.        28.        0.0
      OSSO-4         203        33.        32.        0.0        33.        32.        0.0
      OSSO-4         204        29.        28.        0.0        29.        28.        0.0
      OSSO-4         205         5.        38.        0.0         5.        38.        0.0
      OSSO-4         206         9.        33.        0.0         9.        33.        0.0
      OSSO-4         207         9.        37.        0.0         9.        37.        0.0
      OSSO-4         208        -6.        14.        0.0        -6.        14.        0.0
      OSSO-4         209        -5.        17.        0.0        -5.        17.        0.0
      OSSO-4         210        -8.        17.        0.0        -8.        17.        0.0
      OSSO-4         211        -9.        21.        0.0        -9.        21.        0.0
      OSSO-4         212       -13.        20.        0.0       -13.        20.        0.0
      OSSO-4         213         2.        20.        0.0         2.        20.        0.0
      OSSO-4         214         7.        17.        0.0         7.        17.        0.0
      OSSO-4         215   152.E-03         8.        0.0   156.E-03         8.        0.0
      OSSO-4         216        -2.        10.        0.0        -2.        10.        0.0
      OSSO-4         217        15.       -28.        0.0        15.       -28.        0.0
      OSSO-4         218        24.       -29.        0.0        24.       -29.        0.0
      OSSO-4         219       -19.        22.        0.0       -19.        22.        0.0
      OSSO-4         220        -4.        12.        0.0        -4.        12.        0.0
      OSSO-4         221        -4.        26.        0.0        -4.        26.        0.0
      OSSO-4         222         9.        -8.        0.0         9.        -8.        0.0
      OSSO-4         223        21.        10.        0.0        21.        10.        0.0
      OSSO-4         224        25.         6.        0.0        25.         6.        0.0
      OSSO-4         225        30.        13.        0.0        30.        13.        0.0
      OSSO-4         226         2.         9.        0.0         2.         9.        0.0
      OSSO-4         227         5.        13.        0.0         5.        13.        0.0
      OSSO-4         228         2.        13.        0.0         2.        13.        0.0
      OSSO-4         229        13.        28.        0.0        13.        28.        0.0
      OSSO-4         230        20.   787.E-03        0.0        20.   786.E-03        0.0
      OSSO-4         231        17.         5.        0.0        17.         5.        0.0
      OSSO-4         232        15.        -4.        0.0        15.        -4.        0.0
      OSSO-4         233        17.        13.        0.0        17.        13.        0.0
      OSSO-4         234        12.        15.        0.0        12.        15.        0.0
      OSSO-4         235        28.         2.        0.0        28.         2.        0.0
      OSSO-4         236        -3.        21.        0.0        -3.        21.        0.0
      OSSO-4         237        26.        24.        0.0        26.        24.        0.0
      OSSO-4         238  -363.E-03        15.        0.0  -359.E-03        15.        0.0
      OSSO-4         239       -16.         6.        0.0       -16.         6.        0.0
      OSSO-4         240   667.E-03        44.        0.0   673.E-03        44.        0.0
      OSSO-4         241        32.        23.        0.0        32.        23.        0.0


  Part Instance     Node ID  Attached elements   S, Mises
----------------------------------------------------------
    ASSEMBLY           1          1    NoValue
    ASSEMBLY           2          2    NoValue
    ASSEMBLY           3          3    NoValue
    ASSEMBLY           3          4    NoValue
      OSSO-4           1          2   872.E-03
      OSSO-4           2         23         2.
      OSSO-4           3         22   223.E-03
      OSSO-4           3         38   223.E-03
      OSSO-4           4         52   178.E-03
      OSSO-4           4         58   178.E-03
      OSSO-4           5         37   245.E-03
      OSSO-4           5         52   245.E-03
      OSSO-4           5         67   245.E-03
      OSSO-4           6         40   285.E-03
      OSSO-4           6         67   285.E-03
      OSSO-4           7         21   896.E-03
      OSSO-4           7         40   896.E-03
      OSSO-4           8         19   381.E-03
      OSSO-4           8         21   381.E-03
      OSSO-4           9         11   103.E-03
      OSSO-4           9         19   103.E-03
      OSSO-4          10         10   144.E-03
      OSSO-4          10         11   144.E-03
      OSSO-4          11         10   305.E-03
      OSSO-4          11         65   305.E-03
      OSSO-4          12         31   840.E-03
      OSSO-4          12         65   840.E-03
      OSSO-4          13         13         2.
      OSSO-4          13         31         2.
      OSSO-4          14         13   432.E-03
      OSSO-4          14         14   432.E-03
      OSSO-4          15         14   156.E-03
      OSSO-4          15         47   156.E-03
      OSSO-4          16         29   142.E-03
      OSSO-4          16         47   142.E-03
      OSSO-4          17         29    81.E-03
      OSSO-4          17         64    81.E-03
      OSSO-4          18         17   108.E-03
      OSSO-4          18         64   108.E-03
      OSSO-4          19          8   540.E-03
      OSSO-4          19         17   540.E-03
      OSSO-4          19         18   540.E-03
      OSSO-4          20          7   752.E-03
      OSSO-4          20          8   752.E-03
      OSSO-4          21          7   917.E-03
      OSSO-4          21         26   917.E-03
      OSSO-4          22          6   587.E-03
      OSSO-4          22         26   587.E-03
      OSSO-4          23          4   389.E-03
      OSSO-4          23          6   389.E-03
      OSSO-4          24          4    85.E-03
      OSSO-4          24         28    85.E-03
      OSSO-4          25          1   219.E-03
      OSSO-4          25          2   219.E-03
      OSSO-4          26          1   443.E-03
      OSSO-4          26         23   443.E-03
      OSSO-4          27         23   997.E-03
      OSSO-4          27         46   997.E-03
      OSSO-4          28         22   532.E-03
      OSSO-4          28         46   532.E-03
      OSSO-4          29         38    49.E-03
      OSSO-4          29         58    49.E-03
      OSSO-4          30          2   486.E-03
      OSSO-4          30         28   486.E-03
      OSSO-4          31          5   446.E-03
      OSSO-4          31          7   446.E-03
      OSSO-4          31          8   446.E-03
      OSSO-4          31         15   446.E-03
      OSSO-4          32          3   448.E-03
      OSSO-4          32          6   448.E-03
      OSSO-4          32         26   448.E-03
      OSSO-4          32         50   448.E-03
      OSSO-4          33          8   449.E-03
      OSSO-4          33         15   449.E-03
      OSSO-4          33         18   449.E-03
      OSSO-4          33         45   449.E-03
      OSSO-4          34         13         1.
      OSSO-4          34         30         1.
      OSSO-4          34         31         1.
      OSSO-4          34         49         1.
      OSSO-4          35         16   422.E-03
      OSSO-4          35         17   422.E-03
      OSSO-4          35         18   422.E-03
      OSSO-4          35         48   422.E-03
      OSSO-4          36          5   377.E-03
      OSSO-4          36         12   377.E-03
      OSSO-4          36         15   377.E-03
      OSSO-4          37          3   354.E-03
      OSSO-4          37          5   354.E-03
      OSSO-4          37         12   354.E-03
      OSSO-4          37         33   354.E-03
      OSSO-4          38         11    89.E-03
      OSSO-4          38         19    89.E-03
      OSSO-4          38         35    89.E-03
      OSSO-4          38         66    89.E-03
      OSSO-4          39         19   205.E-03
      OSSO-4          39         20   205.E-03
      OSSO-4          39         21   205.E-03
      OSSO-4          39         35   205.E-03
      OSSO-4          40          9   296.E-03
      OSSO-4          40         25   296.E-03
      OSSO-4          40         33   296.E-03
      OSSO-4          40         34   296.E-03
      OSSO-4          41          3   328.E-03
      OSSO-4          41         25   328.E-03
      OSSO-4          41         33   328.E-03
      OSSO-4          41         50   328.E-03
      OSSO-4          42         20   306.E-03
      OSSO-4          42         21   306.E-03
      OSSO-4          42         39   306.E-03
      OSSO-4          42         40   306.E-03
      OSSO-4          43         20   151.E-03
      OSSO-4          43         39   151.E-03
      OSSO-4          43         70   151.E-03
      OSSO-4          44         35    76.E-03
      OSSO-4          44         41    76.E-03
      OSSO-4          44         54    76.E-03
      OSSO-4          44         66    76.E-03
      OSSO-4          45          9   344.E-03
      OSSO-4          45         12   344.E-03
      OSSO-4          45         33   344.E-03
      OSSO-4          45         69   344.E-03
      OSSO-4          46         20   170.E-03
      OSSO-4          46         35   170.E-03
      OSSO-4          46         54   170.E-03
      OSSO-4          46         70   170.E-03
      OSSO-4          47         12   389.E-03
      OSSO-4          47         15   389.E-03
      OSSO-4          47         45   389.E-03
      OSSO-4          47         69   389.E-03
      OSSO-4          48          1   482.E-03
      OSSO-4          48          2   482.E-03
      OSSO-4          48         28   482.E-03
      OSSO-4          48         51   482.E-03
      OSSO-4          49         29   250.E-03
      OSSO-4          49         32   250.E-03
      OSSO-4          49         43   250.E-03
      OSSO-4          49         47   250.E-03
      OSSO-4          50         14   391.E-03
      OSSO-4          50         43   391.E-03
      OSSO-4          50         47   391.E-03
      OSSO-4          50         60   391.E-03
      OSSO-4          51         22   404.E-03
      OSSO-4          51         24   404.E-03
      OSSO-4          51         38   404.E-03
      OSSO-4          51         59   404.E-03
      OSSO-4          52         22   578.E-03
      OSSO-4          52         24   578.E-03
      OSSO-4          52         46   578.E-03
      OSSO-4          52         51   578.E-03
      OSSO-4          53         45   414.E-03
      OSSO-4          53         53   414.E-03
      OSSO-4          53         68   414.E-03
      OSSO-4          53         69   414.E-03
      OSSO-4          54          9   328.E-03
      OSSO-4          54         34   328.E-03
      OSSO-4          54         53   328.E-03
      OSSO-4          54         62   328.E-03
      OSSO-4          55         27   361.E-03
      OSSO-4          55         30   361.E-03
      OSSO-4          55         41   361.E-03
      OSSO-4          55         54   361.E-03
      OSSO-4          56         25   320.E-03
      OSSO-4          56         50   320.E-03
      OSSO-4          56         55   320.E-03
      OSSO-4          56         59   320.E-03
      OSSO-4          57         25   233.E-03
      OSSO-4          57         34   233.E-03
      OSSO-4          57         55   233.E-03
      OSSO-4          57         56   233.E-03
      OSSO-4          58         34   241.E-03
      OSSO-4          58         56   241.E-03
      OSSO-4          58         57   241.E-03
      OSSO-4          58         62   241.E-03
      OSSO-4          59         16   410.E-03
      OSSO-4          59         42   410.E-03
      OSSO-4          59         48   410.E-03
      OSSO-4          60         52   125.E-03
      OSSO-4          60         55   125.E-03
      OSSO-4          60         56   125.E-03
      OSSO-4          60         58   125.E-03
      OSSO-4          61          4   459.E-03
      OSSO-4          61          6   459.E-03
      OSSO-4          61         24   459.E-03
      OSSO-4          61         50   459.E-03
      OSSO-4          61         59   459.E-03
      OSSO-4          62         27   484.E-03
      OSSO-4          62         30   484.E-03
      OSSO-4          62         49   484.E-03
      OSSO-4          63         36   203.E-03
      OSSO-4          63         39   203.E-03
      OSSO-4          63         61   203.E-03
      OSSO-4          63         70   203.E-03
      OSSO-4          64         27   287.E-03
      OSSO-4          64         36   287.E-03
      OSSO-4          64         44   287.E-03
      OSSO-4          64         54   287.E-03
      OSSO-4          64         70   287.E-03
      OSSO-4          65         13   745.E-03
      OSSO-4          65         14   745.E-03
      OSSO-4          65         49   745.E-03
      OSSO-4          65         60   745.E-03
      OSSO-4          66         42   466.E-03
      OSSO-4          66         43   466.E-03
      OSSO-4          66         60   466.E-03
      OSSO-4          66         63   466.E-03
      OSSO-4          67         36   289.E-03
      OSSO-4          67         44   289.E-03
      OSSO-4          67         57   289.E-03
      OSSO-4          67         62   289.E-03
      OSSO-4          68          4   492.E-03
      OSSO-4          68         24   492.E-03
      OSSO-4          68         28   492.E-03
      OSSO-4          68         51   492.E-03
      OSSO-4          69         44   418.E-03
      OSSO-4          69         53   418.E-03
      OSSO-4          69         62   418.E-03
      OSSO-4          69         63   418.E-03
      OSSO-4          69         68   418.E-03
      OSSO-4          70         36   174.E-03
      OSSO-4          70         37   174.E-03
      OSSO-4          70         57   174.E-03
      OSSO-4          70         61   174.E-03
      OSSO-4          71         27   539.E-03
      OSSO-4          71         44   539.E-03
      OSSO-4          71         49   539.E-03
      OSSO-4          71         60   539.E-03
      OSSO-4          71         63   539.E-03
      OSSO-4          72         37   139.E-03
      OSSO-4          72         52   139.E-03
      OSSO-4          72         56   139.E-03
      OSSO-4          72         57   139.E-03
      OSSO-4          73          1   735.E-03
      OSSO-4          73         23   735.E-03
      OSSO-4          73         46   735.E-03
      OSSO-4          73         51   735.E-03
      OSSO-4          74          3   368.E-03
      OSSO-4          74          5   368.E-03
      OSSO-4          74          7   368.E-03
      OSSO-4          74         26   368.E-03
      OSSO-4          75         38   211.E-03
      OSSO-4          75         55   211.E-03
      OSSO-4          75         58   211.E-03
      OSSO-4          75         59   211.E-03
      OSSO-4          76         18   437.E-03
      OSSO-4          76         45   437.E-03
      OSSO-4          76         48   437.E-03
      OSSO-4          76         68   437.E-03
      OSSO-4          77         16   332.E-03
      OSSO-4          77         17   332.E-03
      OSSO-4          77         32   332.E-03
      OSSO-4          77         64   332.E-03
      OSSO-4          78         29   229.E-03
      OSSO-4          78         32   229.E-03
      OSSO-4          78         64   229.E-03
      OSSO-4          79         30   640.E-03
      OSSO-4          79         31   640.E-03
      OSSO-4          79         41   640.E-03
      OSSO-4          79         65   640.E-03
      OSSO-4          80         10   195.E-03
      OSSO-4          80         41   195.E-03
      OSSO-4          80         65   195.E-03
      OSSO-4          80         66   195.E-03
      OSSO-4          81         10    83.E-03
      OSSO-4          81         11    83.E-03
      OSSO-4          81         66    83.E-03
      OSSO-4          82         39   323.E-03
      OSSO-4          82         40   323.E-03
      OSSO-4          82         61   323.E-03
      OSSO-4          82         67   323.E-03
      OSSO-4          83         37   221.E-03
      OSSO-4          83         61   221.E-03
      OSSO-4          83         67   221.E-03
      OSSO-4          84         16   376.E-03
      OSSO-4          84         32   376.E-03
      OSSO-4          84         42   376.E-03
      OSSO-4          84         43   376.E-03
      OSSO-4          85         42   468.E-03
      OSSO-4          85         48   468.E-03
      OSSO-4          85         63   468.E-03
      OSSO-4          85         68   468.E-03
      OSSO-4          86          9   362.E-03
      OSSO-4          86         53   362.E-03
      OSSO-4          86         69   362.E-03
      OSSO-4          87          1   607.E-03
      OSSO-4          87         23   607.E-03
      OSSO-4          88          1   540.E-03
      OSSO-4          88         51   540.E-03
      OSSO-4          89          1   351.E-03
      OSSO-4          89          2   351.E-03
      OSSO-4          90          1   326.E-03
      OSSO-4          91          2   317.E-03
      OSSO-4          91         28   317.E-03
      OSSO-4          92          2   658.E-03
      OSSO-4          93          2   454.E-03
      OSSO-4          94          3   401.E-03
      OSSO-4          94         26   401.E-03
      OSSO-4          95          3   386.E-03
      OSSO-4          95         50   386.E-03
      OSSO-4          96          3   338.E-03
      OSSO-4          96         33   338.E-03
      OSSO-4          97          3   374.E-03
      OSSO-4          97          5   374.E-03
      OSSO-4          98          4   256.E-03
      OSSO-4          98         28   256.E-03
      OSSO-4          99          4   479.E-03
      OSSO-4          99         24   479.E-03
      OSSO-4         100          4   399.E-03
      OSSO-4         100          6   399.E-03
      OSSO-4         101          4   169.E-03
      OSSO-4         102          5   364.E-03
      OSSO-4         102         12   364.E-03
      OSSO-4         103          5   424.E-03
      OSSO-4         103         15   424.E-03
      OSSO-4         104          5   420.E-03
      OSSO-4         104          7   420.E-03
      OSSO-4         105          6   482.E-03
      OSSO-4         105         26   482.E-03
      OSSO-4         106          6   484.E-03
      OSSO-4         107          6   444.E-03
      OSSO-4         107         50   444.E-03
      OSSO-4         108          7   579.E-03
      OSSO-4         108          8   579.E-03
      OSSO-4         109          7   798.E-03
      OSSO-4         110          7   627.E-03
      OSSO-4         110         26   627.E-03
      OSSO-4         111          8   424.E-03
      OSSO-4         111         15   424.E-03
      OSSO-4         112          8   455.E-03
      OSSO-4         112         18   455.E-03
      OSSO-4         113          8   713.E-03
      OSSO-4         114          9   319.E-03
      OSSO-4         114         33   319.E-03
      OSSO-4         115          9   312.E-03
      OSSO-4         115         34   312.E-03
      OSSO-4         116          9   344.E-03
      OSSO-4         116         53   344.E-03
      OSSO-4         117          9   353.E-03
      OSSO-4         117         69   353.E-03
      OSSO-4         118         10   176.E-03
      OSSO-4         118         65   176.E-03
      OSSO-4         119         10    96.E-03
      OSSO-4         119         66    96.E-03
      OSSO-4         120         10   103.E-03
      OSSO-4         120         11   103.E-03
      OSSO-4         121         10    92.E-03
      OSSO-4         122         11    66.E-03
      OSSO-4         122         66    66.E-03
      OSSO-4         123         11    97.E-03
      OSSO-4         123         19    97.E-03
      OSSO-4         124         11   135.E-03
      OSSO-4         125         12   345.E-03
      OSSO-4         125         33   345.E-03
      OSSO-4         126         12   366.E-03
      OSSO-4         126         69   366.E-03
      OSSO-4         127         12   386.E-03
      OSSO-4         127         15   386.E-03
      OSSO-4         128         13   823.E-03
      OSSO-4         129         13   395.E-03
      OSSO-4         129         14   395.E-03
      OSSO-4         130         13   829.E-03
      OSSO-4         130         49   829.E-03
      OSSO-4         131         13         1.
      OSSO-4         131         31         1.
      OSSO-4         132         14   264.E-03
      OSSO-4         132         47   264.E-03
      OSSO-4         133         14   519.E-03
      OSSO-4         133         60   519.E-03
      OSSO-4         134         14   239.E-03
      OSSO-4         135         15   420.E-03
      OSSO-4         135         45   420.E-03
      OSSO-4         136         16   337.E-03
      OSSO-4         136         32   337.E-03
      OSSO-4         137         16   377.E-03
      OSSO-4         137         17   377.E-03
      OSSO-4         138         16   411.E-03
      OSSO-4         138         48   411.E-03
      OSSO-4         139         16   391.E-03
      OSSO-4         139         42   391.E-03
      OSSO-4         140         17   281.E-03
      OSSO-4         141         17   419.E-03
      OSSO-4         141         18   419.E-03
      OSSO-4         142         17   199.E-03
      OSSO-4         142         64   199.E-03
      OSSO-4         143         18   450.E-03
      OSSO-4         143         45   450.E-03
      OSSO-4         144         18   440.E-03
      OSSO-4         144         48   440.E-03
      OSSO-4         145         19   146.E-03
      OSSO-4         145         35   146.E-03
      OSSO-4         146         19   283.E-03
      OSSO-4         146         21   283.E-03
      OSSO-4         147         19    77.E-03
      OSSO-4         148         20   228.E-03
      OSSO-4         148         39   228.E-03
      OSSO-4         149         20   256.E-03
      OSSO-4         149         21   256.E-03
      OSSO-4         150         20   119.E-03
      OSSO-4         150         35   119.E-03
      OSSO-4         151         20   151.E-03
      OSSO-4         151         70   151.E-03
      OSSO-4         152         21   548.E-03
      OSSO-4         152         40   548.E-03
      OSSO-4         153         21   458.E-03
      OSSO-4         154         22   509.E-03
      OSSO-4         154         46   509.E-03
      OSSO-4         155         22   379.E-03
      OSSO-4         156         22   283.E-03
      OSSO-4         156         38   283.E-03
      OSSO-4         157         22   484.E-03
      OSSO-4         157         24   484.E-03
      OSSO-4         158         23         1.
      OSSO-4         159         23   770.E-03
      OSSO-4         159         46   770.E-03
      OSSO-4         160         23         1.
      OSSO-4         161         24   430.E-03
      OSSO-4         161         59   430.E-03
      OSSO-4         162         24   522.E-03
      OSSO-4         162         51   522.E-03
      OSSO-4         163         25   324.E-03
      OSSO-4         163         50   324.E-03
      OSSO-4         164         25   272.E-03
      OSSO-4         164         55   272.E-03
      OSSO-4         165         25   264.E-03
      OSSO-4         165         34   264.E-03
      OSSO-4         166         25   313.E-03
      OSSO-4         166         33   313.E-03
      OSSO-4         167         26   755.E-03
      OSSO-4         168         27   513.E-03
      OSSO-4         168         49   513.E-03
      OSSO-4         169         27   398.E-03
      OSSO-4         169         44   398.E-03
      OSSO-4         170         27   318.E-03
      OSSO-4         170         54   318.E-03
      OSSO-4         171         27   413.E-03
      OSSO-4         171         30   413.E-03
      OSSO-4         172         28   482.E-03
      OSSO-4         172         51   482.E-03
      OSSO-4         173         28   281.E-03
      OSSO-4         174         29   109.E-03
      OSSO-4         175         29   155.E-03
      OSSO-4         175         64   155.E-03
      OSSO-4         176         29   236.E-03
      OSSO-4         176         32   236.E-03
      OSSO-4         177         29   195.E-03
      OSSO-4         177         47   195.E-03
      OSSO-4         178         30   875.E-03
      OSSO-4         178         31   875.E-03
      OSSO-4         179         30   644.E-03
      OSSO-4         179         49   644.E-03
      OSSO-4         180         30   349.E-03
      OSSO-4         180         41   349.E-03
      OSSO-4         181         31         1.
      OSSO-4         182         31   705.E-03
      OSSO-4         182         65   705.E-03
      OSSO-4         183         32   275.E-03
      OSSO-4         183         64   275.E-03
      OSSO-4         184         32   313.E-03
      OSSO-4         184         43   313.E-03
      OSSO-4         185         34   235.E-03
      OSSO-4         185         56   235.E-03
      OSSO-4         186         34   283.E-03
      OSSO-4         186         62   283.E-03
      OSSO-4         187         35    65.E-03
      OSSO-4         187         66    65.E-03
      OSSO-4         188         35   119.E-03
      OSSO-4         188         54   119.E-03
      OSSO-4         189         36   226.E-03
      OSSO-4         189         70   226.E-03
      OSSO-4         190         36   291.E-03
      OSSO-4         190         44   291.E-03
      OSSO-4         191         36   220.E-03
      OSSO-4         191         57   220.E-03
      OSSO-4         192         36   191.E-03
      OSSO-4         192         61   191.E-03
      OSSO-4         193         37   178.E-03
      OSSO-4         193         61   178.E-03
      OSSO-4         194         37   155.E-03
      OSSO-4         194         57   155.E-03
      OSSO-4         195         37   164.E-03
      OSSO-4         195         52   164.E-03
      OSSO-4         196         37   231.E-03
      OSSO-4         196         67   231.E-03
      OSSO-4         197         38    84.E-03
      OSSO-4         198         38    99.E-03
      OSSO-4         198         58    99.E-03
      OSSO-4         199         38   308.E-03
      OSSO-4         199         59   308.E-03
      OSSO-4         200         39   184.E-03
      OSSO-4         200         70   184.E-03
      OSSO-4         201         39   225.E-03
      OSSO-4         201         61   225.E-03
      OSSO-4         202         39   274.E-03
      OSSO-4         202         40   274.E-03
      OSSO-4         203         40   530.E-03
      OSSO-4         204         40   260.E-03
      OSSO-4         204         67   260.E-03
      OSSO-4         205         41   332.E-03
      OSSO-4         205         65   332.E-03
      OSSO-4         206         41   217.E-03
      OSSO-4         206         54   217.E-03
      OSSO-4         207         41    84.E-03
      OSSO-4         207         66    84.E-03
      OSSO-4         208         42   437.E-03
      OSSO-4         208         48   437.E-03
      OSSO-4         209         42   468.E-03
      OSSO-4         209         63   468.E-03
      OSSO-4         210         42   414.E-03
      OSSO-4         210         43   414.E-03
      OSSO-4         211         43   432.E-03
      OSSO-4         211         60   432.E-03
      OSSO-4         212         43   310.E-03
      OSSO-4         212         47   310.E-03
      OSSO-4         213         44   471.E-03
      OSSO-4         213         63   471.E-03
      OSSO-4         214         44   351.E-03
      OSSO-4         214         62   351.E-03
      OSSO-4         215         45   398.E-03
      OSSO-4         215         69   398.E-03
      OSSO-4         216         45   419.E-03
      OSSO-4         216         68   419.E-03
      OSSO-4         217         46   637.E-03
      OSSO-4         217         51   637.E-03
      OSSO-4         218         46   755.E-03
      OSSO-4         219         47   156.E-03
      OSSO-4         220         48   453.E-03
      OSSO-4         220         68   453.E-03
      OSSO-4         221         49   609.E-03
      OSSO-4         221         60   609.E-03
      OSSO-4         222         50   389.E-03
      OSSO-4         222         59   389.E-03
      OSSO-4         223         52   130.E-03
      OSSO-4         223         56   130.E-03
      OSSO-4         224         52   112.E-03
      OSSO-4         224         58   112.E-03
      OSSO-4         225         52   221.E-03
      OSSO-4         226         53   387.E-03
      OSSO-4         226         69   387.E-03
      OSSO-4         227         53   373.E-03
      OSSO-4         227         62   373.E-03
      OSSO-4         228         53   415.E-03
      OSSO-4         228         68   415.E-03
      OSSO-4         229         54   221.E-03
      OSSO-4         229         70   221.E-03
      OSSO-4         230         55   161.E-03
      OSSO-4         230         58   161.E-03
      OSSO-4         231         55   174.E-03
      OSSO-4         231         56   174.E-03
      OSSO-4         232         55   266.E-03
      OSSO-4         232         59   266.E-03
      OSSO-4         233         56   178.E-03
      OSSO-4         233         57   178.E-03
      OSSO-4         234         57   264.E-03
      OSSO-4         234         62   264.E-03
      OSSO-4         235         58   112.E-03
      OSSO-4         236         60   513.E-03
      OSSO-4         236         63   513.E-03
      OSSO-4         237         61   243.E-03
      OSSO-4         237         67   243.E-03
      OSSO-4         238         63   444.E-03
      OSSO-4         238         68   444.E-03
      OSSO-4         239         64    81.E-03
      OSSO-4         240         65   384.E-03
      OSSO-4         241         67   278.E-03


********************************************************************************
Probe Values Report, written on Fri Oct 25 11:28:29 2024

Source
-------

   ODB: C:/temp/job-implant-base.odb
   Step: Step-1
   Frame: Increment      1: Step Time =    1.000
   Variable: S, Mises (Avg: 75)

Probe values reported at nodes

  Part Instance     Node ID            Orig. Coords                     Def. Coords          
                                 X          Y          Z          X          Y          Z    
-------------------------------------------------------------------------------------------
    ASSEMBLY           1        30.        37.        0.0        30.        37.        0.0
    ASSEMBLY           2        -8.        44.        0.0        -8.        44.        0.0
  IMPLANTE-2-COPY4-1           1        12.        36.        0.0        12.        36.        0.0
  IMPLANTE-2-COPY4-1           2       -12.        14.        0.0       -12.        14.        0.0
  IMPLANTE-2-COPY4-1           3        -9.        11.        0.0        -9.        11.        0.0
  IMPLANTE-2-COPY4-1           4        -7.        13.        0.0        -7.        13.        0.0
  IMPLANTE-2-COPY4-1           5        -9.        14.        0.0        -9.        14.        0.0
  IMPLANTE-2-COPY4-1           6        -5.        18.        0.0        -5.        18.        0.0
  IMPLANTE-2-COPY4-1           7        -3.        17.        0.0        -3.        17.        0.0
  IMPLANTE-2-COPY4-1           8        15.        -2.        0.0        15.        -2.        0.0
  IMPLANTE-2-COPY4-1           9        27.         9.        0.0        27.         9.        0.0
  IMPLANTE-2-COPY4-1          10         9.        28.        0.0         9.        28.        0.0
  IMPLANTE-2-COPY4-1          11         7.        30.        0.0         7.        30.        0.0
  IMPLANTE-2-COPY4-1          12        12.        34.        0.0        12.        34.        0.0
  IMPLANTE-2-COPY4-1          13        13.        32.        0.0        13.        32.        0.0
  IMPLANTE-2-COPY4-1          14        15.        34.        0.0        15.        34.        0.0
  IMPLANTE-2-COPY4-1          15        18.        43.        0.0        18.        43.        0.0
  IMPLANTE-2-COPY4-1          16        -6.        45.        0.0        -6.        45.        0.0
  IMPLANTE-2-COPY4-1          17       -10.        42.        0.0       -10.        42.        0.0
  IMPLANTE-2-COPY4-1          18       -18.         8.        0.0       -18.         8.        0.0
  IMPLANTE-2-COPY4-1          19        11.        35.        0.0        11.        35.        0.0
  IMPLANTE-2-COPY4-1          20        10.        34.        0.0        10.        34.        0.0
  IMPLANTE-2-COPY4-1          21         9.        33.        0.0         9.        33.        0.0
  IMPLANTE-2-COPY4-1          22         8.        32.        0.0         8.        32.        0.0
  IMPLANTE-2-COPY4-1          23         7.        31.        0.0         7.        31.        0.0
  IMPLANTE-2-COPY4-1          24         5.        30.        0.0         5.        30.        0.0
  IMPLANTE-2-COPY4-1          25         4.        29.        0.0         4.        29.        0.0
  IMPLANTE-2-COPY4-1          26         3.        28.        0.0         3.        28.        0.0
  IMPLANTE-2-COPY4-1          27         2.        27.        0.0         2.        27.        0.0
  IMPLANTE-2-COPY4-1          28         1.        26.        0.0         1.        26.        0.0
  IMPLANTE-2-COPY4-1          29    82.E-03        25.        0.0    86.E-03        25.        0.0
  IMPLANTE-2-COPY4-1          30  -988.E-03        24.        0.0  -984.E-03        24.        0.0
  IMPLANTE-2-COPY4-1          31        -2.        23.        0.0        -2.        23.        0.0
  IMPLANTE-2-COPY4-1          32        -3.        22.        0.0        -3.        22.        0.0
  IMPLANTE-2-COPY4-1          33        -4.        21.        0.0        -4.        21.        0.0
  IMPLANTE-2-COPY4-1          34        -5.        20.        0.0        -5.        20.        0.0
  IMPLANTE-2-COPY4-1          35        -6.        19.        0.0        -6.        19.        0.0
  IMPLANTE-2-COPY4-1          36        -7.        18.        0.0        -7.        18.        0.0
  IMPLANTE-2-COPY4-1          37        -8.        17.        0.0        -8.        17.        0.0
  IMPLANTE-2-COPY4-1          38       -10.        16.        0.0       -10.        16.        0.0
  IMPLANTE-2-COPY4-1          39       -11.        15.        0.0       -11.        15.        0.0
  IMPLANTE-2-COPY4-1          40       -11.        13.        0.0       -11.        13.        0.0
  IMPLANTE-2-COPY4-1          41       -10.        12.        0.0       -10.        12.        0.0
  IMPLANTE-2-COPY4-1          42        -8.        12.        0.0        -8.        12.        0.0
  IMPLANTE-2-COPY4-1          43        -8.        14.        0.0        -8.        14.        0.0
  IMPLANTE-2-COPY4-1          44        -8.        15.        0.0        -8.        15.        0.0
  IMPLANTE-2-COPY4-1          45        -7.        16.        0.0        -7.        16.        0.0
  IMPLANTE-2-COPY4-1          46        -6.        17.        0.0        -6.        17.        0.0
  IMPLANTE-2-COPY4-1          47        -4.        17.        0.0        -4.        17.        0.0
  IMPLANTE-2-COPY4-1          48        -2.        15.        0.0        -2.        15.        0.0
  IMPLANTE-2-COPY4-1          49        -1.        14.        0.0        -1.        14.        0.0
  IMPLANTE-2-COPY4-1          50   -19.E-03        13.        0.0   -16.E-03        13.        0.0
  IMPLANTE-2-COPY4-1          51         1.        12.        0.0         1.        12.        0.0
  IMPLANTE-2-COPY4-1          52         2.        11.        0.0         2.        11.        0.0
  IMPLANTE-2-COPY4-1          53         3.        10.        0.0         3.        10.        0.0
  IMPLANTE-2-COPY4-1          54         4.         9.        0.0         4.         9.        0.0
  IMPLANTE-2-COPY4-1          55         5.         8.        0.0         5.         8.        0.0
  IMPLANTE-2-COPY4-1          56         6.         7.        0.0         6.         7.        0.0
  IMPLANTE-2-COPY4-1          57         7.         5.        0.0         7.         5.        0.0
  IMPLANTE-2-COPY4-1          58         8.         4.        0.0         8.         4.        0.0
  IMPLANTE-2-COPY4-1          59        10.         3.        0.0        10.         3.        0.0
  IMPLANTE-2-COPY4-1          60        11.         2.        0.0        11.         2.        0.0
  IMPLANTE-2-COPY4-1          61        12.   988.E-03        0.0        12.   987.E-03        0.0
  IMPLANTE-2-COPY4-1          62        13.  -128.E-03        0.0        13.  -128.E-03        0.0
  IMPLANTE-2-COPY4-1          63        14.        -1.        0.0        14.        -1.        0.0
  IMPLANTE-2-COPY4-1          64        16.        -1.        0.0        16.        -1.        0.0
  IMPLANTE-2-COPY4-1          65        17.  -248.E-03        0.0        17.  -249.E-03        0.0
  IMPLANTE-2-COPY4-1          66        18.   807.E-03        0.0        18.   806.E-03        0.0
  IMPLANTE-2-COPY4-1          67        19.         2.        0.0        19.         2.        0.0
  IMPLANTE-2-COPY4-1          68        20.         3.        0.0        20.         3.        0.0
  IMPLANTE-2-COPY4-1          69        21.         4.        0.0        21.         4.        0.0
  IMPLANTE-2-COPY4-1          70        23.         5.        0.0        23.         5.        0.0
  IMPLANTE-2-COPY4-1          71        24.         6.        0.0        24.         6.        0.0
  IMPLANTE-2-COPY4-1          72        25.         7.        0.0        25.         7.        0.0
  IMPLANTE-2-COPY4-1          73        26.         8.        0.0        26.         8.        0.0
  IMPLANTE-2-COPY4-1          74        26.        10.        0.0        26.        10.        0.0
  IMPLANTE-2-COPY4-1          75        25.        11.        0.0        25.        11.        0.0
  IMPLANTE-2-COPY4-1          76        24.        13.        0.0        24.        13.        0.0
  IMPLANTE-2-COPY4-1          77        23.        14.        0.0        23.        14.        0.0
  IMPLANTE-2-COPY4-1          78        22.        15.        0.0        22.        15.        0.0
  IMPLANTE-2-COPY4-1          79        21.        16.        0.0        21.        16.        0.0
  IMPLANTE-2-COPY4-1          80        20.        17.        0.0        20.        17.        0.0
  IMPLANTE-2-COPY4-1          81        19.        18.        0.0        19.        18.        0.0
  IMPLANTE-2-COPY4-1          82        17.        19.        0.0        17.        19.        0.0
  IMPLANTE-2-COPY4-1          83        16.        20.        0.0        16.        20.        0.0
  IMPLANTE-2-COPY4-1          84        15.        22.        0.0        15.        22.        0.0
  IMPLANTE-2-COPY4-1          85        14.        23.        0.0        14.        23.        0.0
  IMPLANTE-2-COPY4-1          86        13.        24.        0.0        13.        24.        0.0
  IMPLANTE-2-COPY4-1          87        12.        25.        0.0        12.        25.        0.0
  IMPLANTE-2-COPY4-1          88        11.        26.        0.0        11.        26.        0.0
  IMPLANTE-2-COPY4-1          89        10.        27.        0.0        10.        27.        0.0
  IMPLANTE-2-COPY4-1          90         8.        29.        0.0         8.        29.        0.0
  IMPLANTE-2-COPY4-1          91         8.        31.        0.0         8.        31.        0.0
  IMPLANTE-2-COPY4-1          92         9.        32.        0.0         9.        32.        0.0
  IMPLANTE-2-COPY4-1          93        11.        33.        0.0        11.        33.        0.0
  IMPLANTE-2-COPY4-1          94        12.        33.        0.0        12.        33.        0.0
  IMPLANTE-2-COPY4-1          95        14.        35.        0.0        14.        35.        0.0
  IMPLANTE-2-COPY4-1          96        13.        36.        0.0        13.        36.        0.0
  IMPLANTE-2-COPY4-1          97        13.        37.        0.0        13.        37.        0.0
  IMPLANTE-2-COPY4-1          98        14.        39.        0.0        14.        39.        0.0
  IMPLANTE-2-COPY4-1          99        15.        40.        0.0        15.        40.        0.0
  IMPLANTE-2-COPY4-1         100        16.        41.        0.0        16.        41.        0.0
  IMPLANTE-2-COPY4-1         101        17.        42.        0.0        17.        42.        0.0
  IMPLANTE-2-COPY4-1         102        17.        43.        0.0        17.        43.        0.0
  IMPLANTE-2-COPY4-1         103        16.        44.        0.0        16.        44.        0.0
  IMPLANTE-2-COPY4-1         104        14.        45.        0.0        14.        45.        0.0
  IMPLANTE-2-COPY4-1         105        13.        45.        0.0        13.        45.        0.0
  IMPLANTE-2-COPY4-1         106        11.        46.        0.0        11.        46.        0.0
  IMPLANTE-2-COPY4-1         107        10.        46.        0.0        10.        46.        0.0
  IMPLANTE-2-COPY4-1         108         9.        47.        0.0         9.        47.        0.0
  IMPLANTE-2-COPY4-1         109         7.        47.        0.0         7.        47.        0.0
  IMPLANTE-2-COPY4-1         110         6.        47.        0.0         6.        47.        0.0
  IMPLANTE-2-COPY4-1         111         4.        47.        0.0         4.        47.        0.0
  IMPLANTE-2-COPY4-1         112         3.        47.        0.0         3.        47.        0.0
  IMPLANTE-2-COPY4-1         113         1.        47.        0.0         1.        47.        0.0
  IMPLANTE-2-COPY4-1         114  -358.E-03        47.        0.0  -354.E-03        47.        0.0
  IMPLANTE-2-COPY4-1         115        -2.        46.        0.0        -2.        46.        0.0
  IMPLANTE-2-COPY4-1         116        -3.        46.        0.0        -3.        46.        0.0
  IMPLANTE-2-COPY4-1         117        -5.        45.        0.0        -5.        45.        0.0
  IMPLANTE-2-COPY4-1         118        -8.        44.        0.0        -8.        44.        0.0
  IMPLANTE-2-COPY4-1         119        -9.        43.        0.0        -9.        43.        0.0
  IMPLANTE-2-COPY4-1         120       -12.        42.        0.0       -12.        42.        0.0
  IMPLANTE-2-COPY4-1         121       -13.        41.        0.0       -13.        41.        0.0
  IMPLANTE-2-COPY4-1         122       -14.        40.        0.0       -14.        40.        0.0
  IMPLANTE-2-COPY4-1         123       -15.        38.        0.0       -15.        38.        0.0
  IMPLANTE-2-COPY4-1         124       -16.        37.        0.0       -16.        37.        0.0
  IMPLANTE-2-COPY4-1         125       -17.        36.        0.0       -17.        36.        0.0
  IMPLANTE-2-COPY4-1         126       -18.        35.        0.0       -18.        35.        0.0
  IMPLANTE-2-COPY4-1         127       -18.        34.        0.0       -18.        34.        0.0
  IMPLANTE-2-COPY4-1         128       -19.        32.        0.0       -19.        32.        0.0
  IMPLANTE-2-COPY4-1         129       -20.        31.        0.0       -20.        31.        0.0
  IMPLANTE-2-COPY4-1         130       -20.        29.        0.0       -20.        29.        0.0
  IMPLANTE-2-COPY4-1         131       -21.        28.        0.0       -21.        28.        0.0
  IMPLANTE-2-COPY4-1         132       -21.        27.        0.0       -21.        27.        0.0
  IMPLANTE-2-COPY4-1         133       -21.        25.        0.0       -21.        25.        0.0
  IMPLANTE-2-COPY4-1         134       -21.        24.        0.0       -21.        24.        0.0
  IMPLANTE-2-COPY4-1         135       -22.        22.        0.0       -22.        22.        0.0
  IMPLANTE-2-COPY4-1         136       -22.        21.        0.0       -22.        21.        0.0
  IMPLANTE-2-COPY4-1         137       -21.        19.        0.0       -21.        19.        0.0
  IMPLANTE-2-COPY4-1         138       -21.        18.        0.0       -21.        18.        0.0
  IMPLANTE-2-COPY4-1         139       -21.        16.        0.0       -21.        16.        0.0
  IMPLANTE-2-COPY4-1         140       -21.        15.        0.0       -21.        15.        0.0
  IMPLANTE-2-COPY4-1         141       -20.        13.        0.0       -20.        13.        0.0
  IMPLANTE-2-COPY4-1         142       -20.        12.        0.0       -20.        12.        0.0
  IMPLANTE-2-COPY4-1         143       -19.        10.        0.0       -19.        10.        0.0
  IMPLANTE-2-COPY4-1         144       -18.         9.        0.0       -18.         9.        0.0
  IMPLANTE-2-COPY4-1         145       -17.         9.        0.0       -17.         9.        0.0
  IMPLANTE-2-COPY4-1         146       -16.        10.        0.0       -16.        10.        0.0
  IMPLANTE-2-COPY4-1         147       -15.        11.        0.0       -15.        11.        0.0
  IMPLANTE-2-COPY4-1         148       -14.        12.        0.0       -14.        12.        0.0
  IMPLANTE-2-COPY4-1         149       -13.        13.        0.0       -13.        13.        0.0
  IMPLANTE-2-COPY4-1         150        -9.        13.        0.0        -9.        13.        0.0
  IMPLANTE-2-COPY4-1         151        -3.        18.        0.0        -3.        18.        0.0
  IMPLANTE-2-COPY4-1         152        13.        34.        0.0        13.        34.        0.0
  IMPLANTE-2-COPY4-1         153        -2.        18.        0.0        -2.        18.        0.0
  IMPLANTE-2-COPY4-1         154        13.        34.        0.0        13.        34.        0.0
  IMPLANTE-2-COPY4-1         155    78.E-03        23.        0.0    82.E-03        23.        0.0
  IMPLANTE-2-COPY4-1         156        -2.        21.        0.0        -2.        21.        0.0
  IMPLANTE-2-COPY4-1         157         3.        26.        0.0         3.        26.        0.0
  IMPLANTE-2-COPY4-1         158         4.        27.        0.0         4.        27.        0.0
  IMPLANTE-2-COPY4-1         159         6.        29.        0.0         6.        29.        0.0
  IMPLANTE-2-COPY4-1         160         1.        24.        0.0         1.        24.        0.0
  IMPLANTE-2-COPY4-1         161        22.         6.        0.0        22.         6.        0.0
  IMPLANTE-2-COPY4-1         162        20.         5.        0.0        20.         5.        0.0
  IMPLANTE-2-COPY4-1         163        25.         9.        0.0        25.         9.        0.0
  IMPLANTE-2-COPY4-1         164        -1.        16.        0.0        -1.        16.        0.0
  IMPLANTE-2-COPY4-1         165        10.         5.        0.0        10.         5.        0.0
  IMPLANTE-2-COPY4-1         166        14.   850.E-03        0.0        14.   849.E-03        0.0
  IMPLANTE-2-COPY4-1         167         2.        13.        0.0         2.        13.        0.0
  IMPLANTE-2-COPY4-1         168         6.         9.        0.0         6.         9.        0.0
  IMPLANTE-2-COPY4-1         169        12.         3.        0.0        12.         3.        0.0
  IMPLANTE-2-COPY4-1         170         3.        12.        0.0         3.        12.        0.0
  IMPLANTE-2-COPY4-1         171         9.         6.        0.0         9.         6.        0.0
  IMPLANTE-2-COPY4-1         172         7.         8.        0.0         7.         8.        0.0
  IMPLANTE-2-COPY4-1         173   -39.E-03        15.        0.0   -35.E-03        15.        0.0
  IMPLANTE-2-COPY4-1         174        13.         2.        0.0        13.         2.        0.0
  IMPLANTE-2-COPY4-1         175         1.        14.        0.0         1.        14.        0.0
  IMPLANTE-2-COPY4-1         176        11.         4.        0.0        11.         4.        0.0
  IMPLANTE-2-COPY4-1         177         5.        10.        0.0         5.        10.        0.0
  IMPLANTE-2-COPY4-1         178         4.        11.        0.0         4.        11.        0.0
  IMPLANTE-2-COPY4-1         179        15.  -232.E-03        0.0        15.  -233.E-03        0.0
  IMPLANTE-2-COPY4-1         180        12.        23.        0.0        12.        23.        0.0
  IMPLANTE-2-COPY4-1         181        19.        16.        0.0        19.        16.        0.0
  IMPLANTE-2-COPY4-1         182         9.        26.        0.0         9.        26.        0.0
  IMPLANTE-2-COPY4-1         183        10.        25.        0.0        10.        25.        0.0
  IMPLANTE-2-COPY4-1         184        14.        21.        0.0        14.        21.        0.0
  IMPLANTE-2-COPY4-1         185        23.        12.        0.0        23.        12.        0.0
  IMPLANTE-2-COPY4-1         186        18.        17.        0.0        18.        17.        0.0
  IMPLANTE-2-COPY4-1         187        22.        13.        0.0        22.        13.        0.0
  IMPLANTE-2-COPY4-1         188        21.        14.        0.0        21.        14.        0.0
  IMPLANTE-2-COPY4-1         189        20.        15.        0.0        20.        15.        0.0
  IMPLANTE-2-COPY4-1         190        16.        18.        0.0        16.        18.        0.0
  IMPLANTE-2-COPY4-1         191        15.        19.        0.0        15.        19.        0.0
  IMPLANTE-2-COPY4-1         192        13.        22.        0.0        13.        22.        0.0
  IMPLANTE-2-COPY4-1         193        11.        24.        0.0        11.        24.        0.0
  IMPLANTE-2-COPY4-1         194         7.        28.        0.0         7.        28.        0.0
  IMPLANTE-2-COPY4-1         195        -2.        19.        0.0        -2.        19.        0.0
  IMPLANTE-2-COPY4-1         196  -975.E-03        18.        0.0  -972.E-03        18.        0.0
  IMPLANTE-2-COPY4-1         197  -894.E-03        22.        0.0  -891.E-03        22.        0.0
  IMPLANTE-2-COPY4-1         198         2.        25.        0.0         2.        25.        0.0
  IMPLANTE-2-COPY4-1         199        -2.        20.        0.0        -2.        20.        0.0
  IMPLANTE-2-COPY4-1         200        -4.        19.        0.0        -4.        19.        0.0
  IMPLANTE-2-COPY4-1         201         5.        26.        0.0         5.        26.        0.0
  IMPLANTE-2-COPY4-1         202         2.        23.        0.0         2.        23.        0.0
  IMPLANTE-2-COPY4-1         203        23.         7.        0.0        23.         7.        0.0
  IMPLANTE-2-COPY4-1         204        24.         8.        0.0        24.         8.        0.0
  IMPLANTE-2-COPY4-1         205        19.         4.        0.0        19.         4.        0.0
  IMPLANTE-2-COPY4-1         206        18.         3.        0.0        18.         3.        0.0
  IMPLANTE-2-COPY4-1         207        19.         6.        0.0        19.         6.        0.0
  IMPLANTE-2-COPY4-1         208        17.         2.        0.0        17.         2.        0.0
  IMPLANTE-2-COPY4-1         209         8.        27.        0.0         8.        27.        0.0
  IMPLANTE-2-COPY4-1         210         9.         8.        0.0         9.         8.        0.0
  IMPLANTE-2-COPY4-1         211         3.        14.        0.0         3.        14.        0.0
  IMPLANTE-2-COPY4-1         212   968.E-03        16.        0.0   972.E-03        16.        0.0
  IMPLANTE-2-COPY4-1         213        11.         6.        0.0        11.         6.        0.0
  IMPLANTE-2-COPY4-1         214         6.        11.        0.0         6.        11.        0.0
  IMPLANTE-2-COPY4-1         215        14.         3.        0.0        14.         3.        0.0
  IMPLANTE-2-COPY4-1         216        13.         4.        0.0        13.         4.        0.0
  IMPLANTE-2-COPY4-1         217        12.         5.        0.0        12.         5.        0.0
  IMPLANTE-2-COPY4-1         218         7.        10.        0.0         7.        10.        0.0
  IMPLANTE-2-COPY4-1         219         5.        12.        0.0         5.        12.        0.0
  IMPLANTE-2-COPY4-1         220        10.         7.        0.0        10.         7.        0.0
  IMPLANTE-2-COPY4-1         221         2.        15.        0.0         2.        15.        0.0
  IMPLANTE-2-COPY4-1         222         4.        13.        0.0         4.        13.        0.0
  IMPLANTE-2-COPY4-1         223        11.        22.        0.0        11.        22.        0.0
  IMPLANTE-2-COPY4-1         224        19.        14.        0.0        19.        14.        0.0
  IMPLANTE-2-COPY4-1         225        12.        21.        0.0        12.        21.        0.0
  IMPLANTE-2-COPY4-1         226        22.        10.        0.0        22.        10.        0.0
  IMPLANTE-2-COPY4-1         227        13.        20.        0.0        13.        20.        0.0
  IMPLANTE-2-COPY4-1         228         9.        24.        0.0         9.        24.        0.0
  IMPLANTE-2-COPY4-1         229        20.        13.        0.0        20.        13.        0.0
  IMPLANTE-2-COPY4-1         230        14.        18.        0.0        14.        18.        0.0
  IMPLANTE-2-COPY4-1         231        17.        15.        0.0        17.        15.        0.0
  IMPLANTE-2-COPY4-1         232        15.        17.        0.0        15.        17.        0.0
  IMPLANTE-2-COPY4-1         233        16.        16.        0.0        16.        16.        0.0
  IMPLANTE-2-COPY4-1         234        10.        23.        0.0        10.        23.        0.0
  IMPLANTE-2-COPY4-1         235        21.        12.        0.0        21.        12.        0.0
  IMPLANTE-2-COPY4-1         236   -64.E-03        17.        0.0   -61.E-03        17.        0.0
  IMPLANTE-2-COPY4-1         237         6.        27.        0.0         6.        27.        0.0
  IMPLANTE-2-COPY4-1         238  -478.E-03        21.        0.0  -474.E-03        21.        0.0
  IMPLANTE-2-COPY4-1         239         7.        26.        0.0         7.        26.        0.0
  IMPLANTE-2-COPY4-1         240         4.        25.        0.0         4.        25.        0.0
  IMPLANTE-2-COPY4-1         241   310.E-03        21.        0.0   314.E-03        21.        0.0
  IMPLANTE-2-COPY4-1         242         3.        24.        0.0         3.        24.        0.0
  IMPLANTE-2-COPY4-1         243         1.        22.        0.0         1.        22.        0.0
  IMPLANTE-2-COPY4-1         244        17.         4.        0.0        17.         4.        0.0
  IMPLANTE-2-COPY4-1         245        16.         3.        0.0        16.         3.        0.0
  IMPLANTE-2-COPY4-1         246        18.         5.        0.0        18.         5.        0.0
  IMPLANTE-2-COPY4-1         247        21.         7.        0.0        21.         7.        0.0
  IMPLANTE-2-COPY4-1         248         8.        25.        0.0         8.        25.        0.0
  IMPLANTE-2-COPY4-1         249   -70.E-03        19.        0.0   -67.E-03        19.        0.0
  IMPLANTE-2-COPY4-1         250        15.         2.        0.0        15.         2.        0.0
  IMPLANTE-2-COPY4-1         251        23.         9.        0.0        23.         9.        0.0
  IMPLANTE-2-COPY4-1         252         9.        11.        0.0         9.        11.        0.0
  IMPLANTE-2-COPY4-1         253        10.         9.        0.0        10.         9.        0.0
  IMPLANTE-2-COPY4-1         254        15.        15.        0.0        15.        15.        0.0
  IMPLANTE-2-COPY4-1         255        13.        18.        0.0        13.        18.        0.0
  IMPLANTE-2-COPY4-1         256        14.        16.        0.0        14.        16.        0.0
  IMPLANTE-2-COPY4-1         257        12.        19.        0.0        12.        19.        0.0
  IMPLANTE-2-COPY4-1         258        11.        20.        0.0        11.        20.        0.0
  IMPLANTE-2-COPY4-1         259        16.        14.        0.0        16.        14.        0.0
  IMPLANTE-2-COPY4-1         260        11.         8.        0.0        11.         8.        0.0
  IMPLANTE-2-COPY4-1         261         7.        12.        0.0         7.        12.        0.0
  IMPLANTE-2-COPY4-1         262        18.        13.        0.0        18.        13.        0.0
  IMPLANTE-2-COPY4-1         263        20.        10.        0.0        20.        10.        0.0
  IMPLANTE-2-COPY4-1         264        19.        12.        0.0        19.        12.        0.0
  IMPLANTE-2-COPY4-1         265        14.         5.        0.0        14.         5.        0.0
  IMPLANTE-2-COPY4-1         266        12.         7.        0.0        12.         7.        0.0
  IMPLANTE-2-COPY4-1         267        13.         6.        0.0        13.         6.        0.0
  IMPLANTE-2-COPY4-1         268         5.        14.        0.0         5.        14.        0.0
  IMPLANTE-2-COPY4-1         269         4.        15.        0.0         4.        15.        0.0
  IMPLANTE-2-COPY4-1         270         6.        13.        0.0         6.        13.        0.0
  IMPLANTE-2-COPY4-1         271        10.        21.        0.0        10.        21.        0.0
  IMPLANTE-2-COPY4-1         272         9.        22.        0.0         9.        22.        0.0
  IMPLANTE-2-COPY4-1         273         8.        23.        0.0         8.        23.        0.0
  IMPLANTE-2-COPY4-1         274         3.        16.        0.0         3.        16.        0.0
  IMPLANTE-2-COPY4-1         275         2.        17.        0.0         2.        17.        0.0
  IMPLANTE-2-COPY4-1         276   912.E-03        18.        0.0   915.E-03        18.        0.0
  IMPLANTE-2-COPY4-1         277        22.         8.        0.0        22.         8.        0.0
  IMPLANTE-2-COPY4-1         278         4.        23.        0.0         4.        23.        0.0
  IMPLANTE-2-COPY4-1         279         1.        21.        0.0         1.        21.        0.0
  IMPLANTE-2-COPY4-1         280         5.        24.        0.0         5.        24.        0.0
  IMPLANTE-2-COPY4-1         281         2.        22.        0.0         2.        22.        0.0
  IMPLANTE-2-COPY4-1         282         3.        22.        0.0         3.        22.        0.0
  IMPLANTE-2-COPY4-1         283        20.         8.        0.0        20.         8.        0.0
  IMPLANTE-2-COPY4-1         284        17.         6.        0.0        17.         6.        0.0
  IMPLANTE-2-COPY4-1         285        16.         5.        0.0        16.         5.        0.0
  IMPLANTE-2-COPY4-1         286        18.         7.        0.0        18.         7.        0.0
  IMPLANTE-2-COPY4-1         287         7.        24.        0.0         7.        24.        0.0
  IMPLANTE-2-COPY4-1         288        15.         4.        0.0        15.         4.        0.0
  IMPLANTE-2-COPY4-1         289        21.         9.        0.0        21.         9.        0.0
  IMPLANTE-2-COPY4-1         290        11.        10.        0.0        11.        10.        0.0
  IMPLANTE-2-COPY4-1         291        13.        16.        0.0        13.        16.        0.0
  IMPLANTE-2-COPY4-1         292        14.        15.        0.0        14.        15.        0.0
  IMPLANTE-2-COPY4-1         293        14.         7.        0.0        14.         7.        0.0
  IMPLANTE-2-COPY4-1         294        17.        12.        0.0        17.        12.        0.0
  IMPLANTE-2-COPY4-1         295        18.        11.        0.0        18.        11.        0.0
  IMPLANTE-2-COPY4-1         296         6.        15.        0.0         6.        15.        0.0
  IMPLANTE-2-COPY4-1         297         7.        14.        0.0         7.        14.        0.0
  IMPLANTE-2-COPY4-1         298         8.        21.        0.0         8.        21.        0.0
  IMPLANTE-2-COPY4-1         299        12.        17.        0.0        12.        17.        0.0
  IMPLANTE-2-COPY4-1         300        11.        18.        0.0        11.        18.        0.0
  IMPLANTE-2-COPY4-1         301        13.         8.        0.0        13.         8.        0.0
  IMPLANTE-2-COPY4-1         302        12.         9.        0.0        12.         9.        0.0
  IMPLANTE-2-COPY4-1         303        15.        13.        0.0        15.        13.        0.0
  IMPLANTE-2-COPY4-1         304        16.        13.        0.0        16.        13.        0.0
  IMPLANTE-2-COPY4-1         305         9.        13.        0.0         9.        13.        0.0
  IMPLANTE-2-COPY4-1         306        10.        11.        0.0        10.        11.        0.0
  IMPLANTE-2-COPY4-1         307        10.        19.        0.0        10.        19.        0.0
  IMPLANTE-2-COPY4-1         308         9.        20.        0.0         9.        20.        0.0
  IMPLANTE-2-COPY4-1         309         5.        16.        0.0         5.        16.        0.0
  IMPLANTE-2-COPY4-1         310         4.        17.        0.0         4.        17.        0.0
  IMPLANTE-2-COPY4-1         311        16.   806.E-03        0.0        16.   806.E-03        0.0
  IMPLANTE-2-COPY4-1         312         3.        18.        0.0         3.        18.        0.0
  IMPLANTE-2-COPY4-1         313         2.        19.        0.0         2.        19.        0.0
  IMPLANTE-2-COPY4-1         314        24.        10.        0.0        24.        10.        0.0
  IMPLANTE-2-COPY4-1         315   691.E-03        20.        0.0   695.E-03        20.        0.0
  IMPLANTE-2-COPY4-1         316        19.         9.        0.0        19.         9.        0.0
  IMPLANTE-2-COPY4-1         317         4.        22.        0.0         4.        22.        0.0
  IMPLANTE-2-COPY4-1         318         3.        21.        0.0         3.        21.        0.0
  IMPLANTE-2-COPY4-1         319         3.        20.        0.0         3.        20.        0.0
  IMPLANTE-2-COPY4-1         320         6.        23.        0.0         6.        23.        0.0
  IMPLANTE-2-COPY4-1         321         6.        25.        0.0         6.        25.        0.0
  IMPLANTE-2-COPY4-1         322        16.         7.        0.0        16.         7.        0.0
  IMPLANTE-2-COPY4-1         323        17.         8.        0.0        17.         8.        0.0
  IMPLANTE-2-COPY4-1         324         7.        22.        0.0         7.        22.        0.0
  IMPLANTE-2-COPY4-1         325        13.        14.        0.0        13.        14.        0.0
  IMPLANTE-2-COPY4-1         326        15.         8.        0.0        15.         8.        0.0
  IMPLANTE-2-COPY4-1         327        16.        10.        0.0        16.        10.        0.0
  IMPLANTE-2-COPY4-1         328         8.        16.        0.0         8.        16.        0.0
  IMPLANTE-2-COPY4-1         329        12.        15.        0.0        12.        15.        0.0
  IMPLANTE-2-COPY4-1         330        14.        13.        0.0        14.        13.        0.0
  IMPLANTE-2-COPY4-1         331        11.        16.        0.0        11.        16.        0.0
  IMPLANTE-2-COPY4-1         332        14.         9.        0.0        14.         9.        0.0
  IMPLANTE-2-COPY4-1         333         9.        15.        0.0         9.        15.        0.0
  IMPLANTE-2-COPY4-1         334        13.        10.        0.0        13.        10.        0.0
  IMPLANTE-2-COPY4-1         335        16.        11.        0.0        16.        11.        0.0
  IMPLANTE-2-COPY4-1         336        12.        11.        0.0        12.        11.        0.0
  IMPLANTE-2-COPY4-1         337        10.        13.        0.0        10.        13.        0.0
  IMPLANTE-2-COPY4-1         338        15.        12.        0.0        15.        12.        0.0
  IMPLANTE-2-COPY4-1         339        11.        12.        0.0        11.        12.        0.0
  IMPLANTE-2-COPY4-1         340        10.        17.        0.0        10.        17.        0.0
  IMPLANTE-2-COPY4-1         341         8.        19.        0.0         8.        19.        0.0
  IMPLANTE-2-COPY4-1         342         9.        18.        0.0         9.        18.        0.0
  IMPLANTE-2-COPY4-1         343         6.        16.        0.0         6.        16.        0.0
  IMPLANTE-2-COPY4-1         344         6.        17.        0.0         6.        17.        0.0
  IMPLANTE-2-COPY4-1         345         5.        18.        0.0         5.        18.        0.0
  IMPLANTE-2-COPY4-1         346         5.        20.        0.0         5.        20.        0.0
  IMPLANTE-2-COPY4-1         347        15.         6.        0.0        15.         6.        0.0
  IMPLANTE-2-COPY4-1         348         7.        20.        0.0         7.        20.        0.0
  IMPLANTE-2-COPY4-1         349        12.        13.        0.0        12.        13.        0.0
  IMPLANTE-2-COPY4-1         350        11.        14.        0.0        11.        14.        0.0
  IMPLANTE-2-COPY4-1         351        13.        12.        0.0        13.        12.        0.0
  IMPLANTE-2-COPY4-1         352        15.        10.        0.0        15.        10.        0.0
  IMPLANTE-2-COPY4-1         353        13.        11.        0.0        13.        11.        0.0
  IMPLANTE-2-COPY4-1         354        10.        15.        0.0        10.        15.        0.0
  IMPLANTE-2-COPY4-1         355         9.        16.        0.0         9.        16.        0.0
  IMPLANTE-2-COPY4-1         356         8.        18.        0.0         8.        18.        0.0
  IMPLANTE-2-COPY4-1         357         4.        19.        0.0         4.        19.        0.0
  IMPLANTE-2-COPY4-1         358         6.        19.        0.0         6.        19.        0.0
  IMPLANTE-2-COPY4-1         359         6.        21.        0.0         6.        21.        0.0
  IMPLANTE-2-COPY4-1         360         6.        20.        0.0         6.        20.        0.0
  IMPLANTE-2-COPY4-1         361         6.        18.        0.0         6.        18.        0.0
  IMPLANTE-2-COPY4-1         362         7.        17.        0.0         7.        17.        0.0
  IMPLANTE-2-COPY4-1         363        12.        35.        0.0        12.        35.        0.0
  IMPLANTE-2-COPY4-1         364       -10.        14.        0.0       -10.        14.        0.0
  IMPLANTE-2-COPY4-1         365         5.        28.        0.0         5.        28.        0.0
  IMPLANTE-2-COPY4-1         366        -1.        20.        0.0        -1.        20.        0.0
  IMPLANTE-2-COPY4-1         367        -2.        19.        0.0        -2.        19.        0.0
  IMPLANTE-2-COPY4-1         368         5.        22.        0.0         5.        22.        0.0
  IMPLANTE-2-COPY4-1         369         5.        21.        0.0         5.        21.        0.0
  IMPLANTE-2-COPY4-1         370        14.        12.        0.0        14.        12.        0.0
  IMPLANTE-2-COPY4-1         371        15.        11.        0.0        15.        11.        0.0
  IMPLANTE-2-COPY4-1         372         7.        19.        0.0         7.        19.        0.0
  IMPLANTE-2-COPY4-1         373       -13.        14.        0.0       -13.        14.        0.0
  IMPLANTE-2-COPY4-1         374       -14.        13.        0.0       -14.        13.        0.0
  IMPLANTE-2-COPY4-1         375       -16.        11.        0.0       -16.        11.        0.0
  IMPLANTE-2-COPY4-1         376       -15.        12.        0.0       -15.        12.        0.0
  IMPLANTE-2-COPY4-1         377        11.        37.        0.0        11.        37.        0.0
  IMPLANTE-2-COPY4-1         378        15.        41.        0.0        15.        41.        0.0
  IMPLANTE-2-COPY4-1         379        14.        41.        0.0        14.        41.        0.0
  IMPLANTE-2-COPY4-1         380        12.        38.        0.0        12.        38.        0.0
  IMPLANTE-2-COPY4-1         381        13.        39.        0.0        13.        39.        0.0
  IMPLANTE-2-COPY4-1         382         9.        35.        0.0         9.        35.        0.0
  IMPLANTE-2-COPY4-1         383         5.        31.        0.0         5.        31.        0.0
  IMPLANTE-2-COPY4-1         384        -8.        19.        0.0        -8.        19.        0.0
  IMPLANTE-2-COPY4-1         385        -3.        24.        0.0        -3.        24.        0.0
  IMPLANTE-2-COPY4-1         386   408.E-03        27.        0.0   412.E-03        27.        0.0
  IMPLANTE-2-COPY4-1         387        -5.        22.        0.0        -5.        22.        0.0
  IMPLANTE-2-COPY4-1         388        -2.        25.        0.0        -2.        25.        0.0
  IMPLANTE-2-COPY4-1         389        -4.        23.        0.0        -4.        23.        0.0
  IMPLANTE-2-COPY4-1         390         4.        30.        0.0         4.        30.        0.0
  IMPLANTE-2-COPY4-1         391        -7.        20.        0.0        -7.        20.        0.0
  IMPLANTE-2-COPY4-1         392        -9.        18.        0.0        -9.        18.        0.0
  IMPLANTE-2-COPY4-1         393       -10.        17.        0.0       -10.        17.        0.0
  IMPLANTE-2-COPY4-1         394       -11.        16.        0.0       -11.        16.        0.0
  IMPLANTE-2-COPY4-1         395        -6.        21.        0.0        -6.        21.        0.0
  IMPLANTE-2-COPY4-1         396  -658.E-03        26.        0.0  -654.E-03        26.        0.0
  IMPLANTE-2-COPY4-1         397         1.        28.        0.0         1.        28.        0.0
  IMPLANTE-2-COPY4-1         398         3.        29.        0.0         3.        29.        0.0
  IMPLANTE-2-COPY4-1         399         8.        34.        0.0         8.        34.        0.0
  IMPLANTE-2-COPY4-1         400         6.        32.        0.0         6.        32.        0.0
  IMPLANTE-2-COPY4-1         401         7.        33.        0.0         7.        33.        0.0
  IMPLANTE-2-COPY4-1         402       -13.        15.        0.0       -13.        15.        0.0
  IMPLANTE-2-COPY4-1         403        10.        36.        0.0        10.        36.        0.0
  IMPLANTE-2-COPY4-1         404        -6.        44.        0.0        -6.        44.        0.0
  IMPLANTE-2-COPY4-1         405        -4.        44.        0.0        -4.        44.        0.0
  IMPLANTE-2-COPY4-1         406         8.        45.        0.0         8.        45.        0.0
  IMPLANTE-2-COPY4-1         407         1.        45.        0.0         1.        45.        0.0
  IMPLANTE-2-COPY4-1         408         4.        45.        0.0         4.        45.        0.0
  IMPLANTE-2-COPY4-1         409        12.        44.        0.0        12.        44.        0.0
  IMPLANTE-2-COPY4-1         410        -3.        45.        0.0        -3.        45.        0.0
  IMPLANTE-2-COPY4-1         411        -2.        45.        0.0        -2.        45.        0.0
  IMPLANTE-2-COPY4-1         412         5.        45.        0.0         5.        45.        0.0
  IMPLANTE-2-COPY4-1         413  -282.E-03        45.        0.0  -278.E-03        45.        0.0
  IMPLANTE-2-COPY4-1         414         2.        45.        0.0         3.        45.        0.0
  IMPLANTE-2-COPY4-1         415         7.        45.        0.0         7.        45.        0.0
  IMPLANTE-2-COPY4-1         416        14.        43.        0.0        14.        43.        0.0
  IMPLANTE-2-COPY4-1         417        11.        44.        0.0        11.        44.        0.0
  IMPLANTE-2-COPY4-1         418        10.        45.        0.0        10.        45.        0.0
  IMPLANTE-2-COPY4-1         419       -11.        40.        0.0       -11.        40.        0.0
  IMPLANTE-2-COPY4-1         420       -12.        40.        0.0       -12.        40.        0.0
  IMPLANTE-2-COPY4-1         421       -18.        32.        0.0       -18.        32.        0.0
  IMPLANTE-2-COPY4-1         422       -20.        23.        0.0       -20.        23.        0.0
  IMPLANTE-2-COPY4-1         423       -14.        38.        0.0       -14.        38.        0.0
  IMPLANTE-2-COPY4-1         424       -19.        28.        0.0       -19.        28.        0.0
  IMPLANTE-2-COPY4-1         425       -20.        26.        0.0       -20.        26.        0.0
  IMPLANTE-2-COPY4-1         426       -18.        11.        0.0       -18.        11.        0.0
  IMPLANTE-2-COPY4-1         427       -20.        19.        0.0       -20.        19.        0.0
  IMPLANTE-2-COPY4-1         428       -19.        12.        0.0       -19.        12.        0.0
  IMPLANTE-2-COPY4-1         429       -19.        15.        0.0       -19.        15.        0.0
  IMPLANTE-2-COPY4-1         430       -20.        16.        0.0       -20.        16.        0.0
  IMPLANTE-2-COPY4-1         431       -19.        14.        0.0       -19.        14.        0.0
  IMPLANTE-2-COPY4-1         432       -15.        36.        0.0       -15.        36.        0.0
  IMPLANTE-2-COPY4-1         433       -18.        30.        0.0       -18.        30.        0.0
  IMPLANTE-2-COPY4-1         434       -17.        33.        0.0       -17.        33.        0.0
  IMPLANTE-2-COPY4-1         435       -20.        18.        0.0       -20.        18.        0.0
  IMPLANTE-2-COPY4-1         436       -16.        34.        0.0       -16.        34.        0.0
  IMPLANTE-2-COPY4-1         437       -20.        22.        0.0       -20.        22.        0.0
  IMPLANTE-2-COPY4-1         438       -17.        10.        0.0       -17.        10.        0.0
  IMPLANTE-2-COPY4-1         439       -20.        21.        0.0       -20.        21.        0.0
  IMPLANTE-2-COPY4-1         440       -16.        35.        0.0       -16.        35.        0.0
  IMPLANTE-2-COPY4-1         441       -20.        25.        0.0       -20.        25.        0.0
  IMPLANTE-2-COPY4-1         442       -19.        29.        0.0       -19.        29.        0.0
  IMPLANTE-2-COPY4-1         443       -13.        39.        0.0       -13.        39.        0.0
  IMPLANTE-2-COPY4-1         444       -16.        13.        0.0       -16.        13.        0.0
  IMPLANTE-2-COPY4-1         445       -17.        12.        0.0       -17.        12.        0.0
  IMPLANTE-2-COPY4-1         446       -15.        14.        0.0       -15.        14.        0.0
  IMPLANTE-2-COPY4-1         447        -4.        43.        0.0        -4.        43.        0.0
  IMPLANTE-2-COPY4-1         448         5.        44.        0.0         5.        44.        0.0
  IMPLANTE-2-COPY4-1         449         1.        44.        0.0         1.        44.        0.0
  IMPLANTE-2-COPY4-1         450        13.        42.        0.0        13.        42.        0.0
  IMPLANTE-2-COPY4-1         451         9.        43.        0.0         9.        43.        0.0
  IMPLANTE-2-COPY4-1         452        10.        43.        0.0        10.        43.        0.0
  IMPLANTE-2-COPY4-1         453         8.        44.        0.0         8.        44.        0.0
  IMPLANTE-2-COPY4-1         454        -2.        44.        0.0        -1.        44.        0.0
  IMPLANTE-2-COPY4-1         455  -235.E-03        44.        0.0  -230.E-03        44.        0.0
  IMPLANTE-2-COPY4-1         456         2.        44.        0.0         2.        44.        0.0
  IMPLANTE-2-COPY4-1         457         6.        44.        0.0         6.        44.        0.0
  IMPLANTE-2-COPY4-1         458        12.        42.        0.0        12.        42.        0.0
  IMPLANTE-2-COPY4-1         459         4.        44.        0.0         4.        44.        0.0
  IMPLANTE-2-COPY4-1         460        -3.        43.        0.0        -3.        43.        0.0
  IMPLANTE-2-COPY4-1         461       -10.        39.        0.0       -10.        39.        0.0
  IMPLANTE-2-COPY4-1         462       -17.        31.        0.0       -17.        31.        0.0
  IMPLANTE-2-COPY4-1         463       -19.        19.        0.0       -19.        19.        0.0
  IMPLANTE-2-COPY4-1         464       -18.        29.        0.0       -18.        29.        0.0
  IMPLANTE-2-COPY4-1         465       -19.        25.        0.0       -19.        25.        0.0
  IMPLANTE-2-COPY4-1         466       -19.        22.        0.0       -19.        22.        0.0
  IMPLANTE-2-COPY4-1         467       -11.        38.        0.0       -11.        38.        0.0
  IMPLANTE-2-COPY4-1         468       -18.        14.        0.0       -18.        14.        0.0
  IMPLANTE-2-COPY4-1         469       -14.        36.        0.0       -14.        36.        0.0
  IMPLANTE-2-COPY4-1         470       -16.        32.        0.0       -16.        32.        0.0
  IMPLANTE-2-COPY4-1         471       -18.        15.        0.0       -18.        15.        0.0
  IMPLANTE-2-COPY4-1         472       -18.        26.        0.0       -18.        26.        0.0
  IMPLANTE-2-COPY4-1         473       -18.        17.        0.0       -18.        17.        0.0
  IMPLANTE-2-COPY4-1         474       -15.        34.        0.0       -15.        34.        0.0
  IMPLANTE-2-COPY4-1         475       -12.        38.        0.0       -12.        38.        0.0
  IMPLANTE-2-COPY4-1         476       -13.        37.        0.0       -13.        37.        0.0
  IMPLANTE-2-COPY4-1         477       -19.        18.        0.0       -19.        18.        0.0
  IMPLANTE-2-COPY4-1         478       -18.        27.        0.0       -18.        27.        0.0
  IMPLANTE-2-COPY4-1         479       -19.        23.        0.0       -19.        23.        0.0
  IMPLANTE-2-COPY4-1         480       -15.        33.        0.0       -15.        33.        0.0
  IMPLANTE-2-COPY4-1         481       -19.        21.        0.0       -19.        21.        0.0
  IMPLANTE-2-COPY4-1         482       -17.        30.        0.0       -17.        30.        0.0
  IMPLANTE-2-COPY4-1         483       -14.        15.        0.0       -14.        15.        0.0
  IMPLANTE-2-COPY4-1         484        11.        39.        0.0        11.        39.        0.0
  IMPLANTE-2-COPY4-1         485        14.        42.        0.0        14.        42.        0.0
  IMPLANTE-2-COPY4-1         486        10.        38.        0.0        10.        38.        0.0
  IMPLANTE-2-COPY4-1         487         9.        37.        0.0         9.        37.        0.0
  IMPLANTE-2-COPY4-1         488        -7.        22.        0.0        -7.        22.        0.0
  IMPLANTE-2-COPY4-1         489       -12.        17.        0.0       -12.        17.        0.0
  IMPLANTE-2-COPY4-1         490        -4.        25.        0.0        -4.        25.        0.0
  IMPLANTE-2-COPY4-1         491        -2.        26.        0.0        -2.        26.        0.0
  IMPLANTE-2-COPY4-1         492         4.        32.        0.0         4.        32.        0.0
  IMPLANTE-2-COPY4-1         493        -9.        20.        0.0        -9.        20.        0.0
  IMPLANTE-2-COPY4-1         494         3.        31.        0.0         3.        31.        0.0
  IMPLANTE-2-COPY4-1         495  -341.E-03        28.        0.0  -337.E-03        28.        0.0
  IMPLANTE-2-COPY4-1         496       -10.        19.        0.0       -10.        19.        0.0
  IMPLANTE-2-COPY4-1         497   719.E-03        29.        0.0   722.E-03        29.        0.0
  IMPLANTE-2-COPY4-1         498         6.        34.        0.0         6.        34.        0.0
  IMPLANTE-2-COPY4-1         499         5.        33.        0.0         5.        33.        0.0
  IMPLANTE-2-COPY4-1         500         2.        30.        0.0         2.        30.        0.0
  IMPLANTE-2-COPY4-1         501         7.        35.        0.0         7.        35.        0.0
  IMPLANTE-2-COPY4-1         502        -6.        23.        0.0        -6.        23.        0.0
  IMPLANTE-2-COPY4-1         503       -11.        18.        0.0       -11.        18.        0.0
  IMPLANTE-2-COPY4-1         504        -8.        21.        0.0        -8.        21.        0.0
  IMPLANTE-2-COPY4-1         505        -1.        27.        0.0        -1.        27.        0.0
  IMPLANTE-2-COPY4-1         506        -5.        24.        0.0        -5.        24.        0.0
  IMPLANTE-2-COPY4-1         507         8.        36.        0.0         8.        36.        0.0
  IMPLANTE-2-COPY4-1         508       -14.        16.        0.0       -14.        16.        0.0
  IMPLANTE-2-COPY4-1         509        -7.        43.        0.0        -7.        43.        0.0
  IMPLANTE-2-COPY4-1         510        12.        40.        0.0        12.        40.        0.0
  IMPLANTE-2-COPY4-1         511        -3.        42.        0.0        -3.        42.        0.0
  IMPLANTE-2-COPY4-1         512       -10.        37.        0.0       -10.        37.        0.0
  IMPLANTE-2-COPY4-1         513        -1.        42.        0.0        -1.        42.        0.0
  IMPLANTE-2-COPY4-1         514  -260.E-03        42.        0.0  -256.E-03        42.        0.0
  IMPLANTE-2-COPY4-1         515   985.E-03        42.        0.0   989.E-03        42.        0.0
  IMPLANTE-2-COPY4-1         516         2.        43.        0.0         2.        43.        0.0
  IMPLANTE-2-COPY4-1         517         4.        43.        0.0         4.        43.        0.0
  IMPLANTE-2-COPY4-1         518         5.        43.        0.0         5.        43.        0.0
  IMPLANTE-2-COPY4-1         519         6.        43.        0.0         6.        43.        0.0
  IMPLANTE-2-COPY4-1         520         7.        43.        0.0         7.        43.        0.0
  IMPLANTE-2-COPY4-1         521         9.        42.        0.0         9.        42.        0.0
  IMPLANTE-2-COPY4-1         522        10.        42.        0.0        10.        42.        0.0
  IMPLANTE-2-COPY4-1         523        11.        41.        0.0        11.        41.        0.0
  IMPLANTE-2-COPY4-1         524       -11.        36.        0.0       -11.        36.        0.0
  IMPLANTE-2-COPY4-1         525       -12.        36.        0.0       -12.        36.        0.0
  IMPLANTE-2-COPY4-1         526       -13.        35.        0.0       -13.        35.        0.0
  IMPLANTE-2-COPY4-1         527       -14.        34.        0.0       -14.        34.        0.0
  IMPLANTE-2-COPY4-1         528       -14.        33.        0.0       -14.        33.        0.0
  IMPLANTE-2-COPY4-1         529       -15.        31.        0.0       -15.        31.        0.0
  IMPLANTE-2-COPY4-1         530       -15.        30.        0.0       -15.        30.        0.0
  IMPLANTE-2-COPY4-1         531       -16.        29.        0.0       -16.        29.        0.0
  IMPLANTE-2-COPY4-1         532       -16.        28.        0.0       -16.        28.        0.0
  IMPLANTE-2-COPY4-1         533       -17.        27.        0.0       -17.        27.        0.0
  IMPLANTE-2-COPY4-1         534       -17.        26.        0.0       -17.        26.        0.0
  IMPLANTE-2-COPY4-1         535       -17.        24.        0.0       -17.        24.        0.0
  IMPLANTE-2-COPY4-1         536       -17.        23.        0.0       -17.        23.        0.0
  IMPLANTE-2-COPY4-1         537       -18.        22.        0.0       -18.        22.        0.0
  IMPLANTE-2-COPY4-1         538       -18.        21.        0.0       -18.        21.        0.0
  IMPLANTE-2-COPY4-1         539       -17.        19.        0.0       -17.        19.        0.0
  IMPLANTE-2-COPY4-1         540       -17.        18.        0.0       -17.        18.        0.0
  IMPLANTE-2-COPY4-1         541       -17.        17.        0.0       -17.        17.        0.0
  IMPLANTE-2-COPY4-1         542       -17.        15.        0.0       -17.        15.        0.0
  IMPLANTE-2-COPY4-1         543       -17.        14.        0.0       -17.        14.        0.0
  IMPLANTE-2-COPY4-1         544       -17.        14.        0.0       -17.        14.        0.0
  IMPLANTE-2-COPY4-1         545       -15.        16.        0.0       -15.        16.        0.0
  IMPLANTE-2-COPY4-1         546        10.        40.        0.0        10.        40.        0.0
  IMPLANTE-2-COPY4-1         547         9.        39.        0.0         9.        39.        0.0
  IMPLANTE-2-COPY4-1         548        -2.        41.        0.0        -2.        41.        0.0
  IMPLANTE-2-COPY4-1         549        -9.        36.        0.0        -9.        36.        0.0
  IMPLANTE-2-COPY4-1         550         2.        41.        0.0         2.        41.        0.0
  IMPLANTE-2-COPY4-1         551         4.        41.        0.0         4.        41.        0.0
  IMPLANTE-2-COPY4-1         552  -436.E-03        41.        0.0  -432.E-03        41.        0.0
  IMPLANTE-2-COPY4-1         553   894.E-03        41.        0.0   898.E-03        41.        0.0
  IMPLANTE-2-COPY4-1         554         5.        42.        0.0         5.        42.        0.0
  IMPLANTE-2-COPY4-1         555         6.        42.        0.0         6.        42.        0.0
  IMPLANTE-2-COPY4-1         556         7.        41.        0.0         7.        41.        0.0
  IMPLANTE-2-COPY4-1         557         8.        41.        0.0         8.        41.        0.0
  IMPLANTE-2-COPY4-1         558       -10.        35.        0.0       -10.        35.        0.0
  IMPLANTE-2-COPY4-1         559         9.        41.        0.0         9.        41.        0.0
  IMPLANTE-2-COPY4-1         560       -11.        35.        0.0       -11.        35.        0.0
  IMPLANTE-2-COPY4-1         561       -12.        34.        0.0       -12.        34.        0.0
  IMPLANTE-2-COPY4-1         562       -14.        31.        0.0       -14.        31.        0.0
  IMPLANTE-2-COPY4-1         563       -13.        33.        0.0       -13.        33.        0.0
  IMPLANTE-2-COPY4-1         564       -14.        30.        0.0       -14.        30.        0.0
  IMPLANTE-2-COPY4-1         565       -13.        32.        0.0       -13.        32.        0.0
  IMPLANTE-2-COPY4-1         566       -15.        29.        0.0       -15.        29.        0.0
  IMPLANTE-2-COPY4-1         567       -15.        28.        0.0       -15.        28.        0.0
  IMPLANTE-2-COPY4-1         568       -16.        26.        0.0       -16.        26.        0.0
  IMPLANTE-2-COPY4-1         569       -16.        25.        0.0       -16.        25.        0.0
  IMPLANTE-2-COPY4-1         570       -16.        24.        0.0       -16.        24.        0.0
  IMPLANTE-2-COPY4-1         571       -16.        23.        0.0       -16.        23.        0.0
  IMPLANTE-2-COPY4-1         572       -16.        22.        0.0       -16.        22.        0.0
  IMPLANTE-2-COPY4-1         573       -16.        21.        0.0       -16.        21.        0.0
  IMPLANTE-2-COPY4-1         574       -16.        20.        0.0       -16.        20.        0.0
  IMPLANTE-2-COPY4-1         575       -16.        18.        0.0       -16.        18.        0.0
  IMPLANTE-2-COPY4-1         576       -16.        17.        0.0       -16.        17.        0.0
  IMPLANTE-2-COPY4-1         577       -14.        18.        0.0       -14.        18.        0.0
  IMPLANTE-2-COPY4-1         578       -18.        13.        0.0       -18.        13.        0.0
  IMPLANTE-2-COPY4-1         579        -9.        38.        0.0        -9.        38.        0.0
  IMPLANTE-2-COPY4-1         580        -4.        42.        0.0        -4.        42.        0.0
  IMPLANTE-2-COPY4-1         581         8.        38.        0.0         8.        38.        0.0
  IMPLANTE-2-COPY4-1         582        -7.        23.        0.0        -7.        23.        0.0
  IMPLANTE-2-COPY4-1         583        -9.        22.        0.0        -9.        22.        0.0
  IMPLANTE-2-COPY4-1         584        -6.        24.        0.0        -6.        24.        0.0
  IMPLANTE-2-COPY4-1         585        -5.        25.        0.0        -5.        25.        0.0
  IMPLANTE-2-COPY4-1         586         5.        35.        0.0         5.        35.        0.0
  IMPLANTE-2-COPY4-1         587         6.        36.        0.0         6.        36.        0.0
  IMPLANTE-2-COPY4-1         588         4.        34.        0.0         4.        34.        0.0
  IMPLANTE-2-COPY4-1         589        -1.        30.        0.0        -1.        30.        0.0
  IMPLANTE-2-COPY4-1         590         3.        33.        0.0         3.        33.        0.0
  IMPLANTE-2-COPY4-1         591        -4.        26.        0.0        -4.        26.        0.0
  IMPLANTE-2-COPY4-1         592         1.        32.        0.0         1.        32.        0.0
  IMPLANTE-2-COPY4-1         593   -57.E-03        31.        0.0   -53.E-03        31.        0.0
  IMPLANTE-2-COPY4-1         594         2.        32.        0.0         2.        32.        0.0
  IMPLANTE-2-COPY4-1         595        -3.        27.        0.0        -3.        27.        0.0
  IMPLANTE-2-COPY4-1         596        -2.        29.        0.0        -2.        29.        0.0
  IMPLANTE-2-COPY4-1         597       -10.        21.        0.0       -10.        21.        0.0
  IMPLANTE-2-COPY4-1         598       -12.        19.        0.0       -12.        19.        0.0
  IMPLANTE-2-COPY4-1         599       -11.        20.        0.0       -11.        20.        0.0
  IMPLANTE-2-COPY4-1         600         7.        37.        0.0         7.        37.        0.0
  IMPLANTE-2-COPY4-1         601        -9.        40.        0.0        -9.        40.        0.0
  IMPLANTE-2-COPY4-1         602       -13.        18.        0.0       -13.        18.        0.0
  IMPLANTE-2-COPY4-1         603        -5.        42.        0.0        -5.        42.        0.0
  IMPLANTE-2-COPY4-1         604        -8.        42.        0.0        -8.        42.        0.0
  IMPLANTE-2-COPY4-1         605       -10.        41.        0.0       -10.        41.        0.0
  IMPLANTE-2-COPY4-1         606        -8.        35.        0.0        -8.        35.        0.0
  IMPLANTE-2-COPY4-1         607         4.        40.        0.0         4.        40.        0.0
  IMPLANTE-2-COPY4-1         608         2.        40.        0.0         2.        40.        0.0
  IMPLANTE-2-COPY4-1         609   885.E-03        39.        0.0   889.E-03        39.        0.0
  IMPLANTE-2-COPY4-1         610         5.        40.        0.0         5.        40.        0.0
  IMPLANTE-2-COPY4-1         611         6.        41.        0.0         6.        41.        0.0
  IMPLANTE-2-COPY4-1         612         6.        40.        0.0         6.        40.        0.0
  IMPLANTE-2-COPY4-1         613        -9.        34.        0.0        -9.        34.        0.0
  IMPLANTE-2-COPY4-1         614       -13.        30.        0.0       -13.        30.        0.0
  IMPLANTE-2-COPY4-1         615       -10.        33.        0.0       -10.        33.        0.0
  IMPLANTE-2-COPY4-1         616       -13.        29.        0.0       -13.        29.        0.0
  IMPLANTE-2-COPY4-1         617       -11.        33.        0.0       -11.        33.        0.0
  IMPLANTE-2-COPY4-1         618       -12.        31.        0.0       -12.        31.        0.0
  IMPLANTE-2-COPY4-1         619         7.        40.        0.0         7.        40.        0.0
  IMPLANTE-2-COPY4-1         620       -12.        32.        0.0       -12.        32.        0.0
  IMPLANTE-2-COPY4-1         621         8.        39.        0.0         8.        39.        0.0
  IMPLANTE-2-COPY4-1         622       -14.        28.        0.0       -14.        28.        0.0
  IMPLANTE-2-COPY4-1         623       -14.        27.        0.0       -14.        27.        0.0
  IMPLANTE-2-COPY4-1         624       -15.        26.        0.0       -15.        26.        0.0
  IMPLANTE-2-COPY4-1         625       -15.        25.        0.0       -15.        25.        0.0
  IMPLANTE-2-COPY4-1         626       -15.        23.        0.0       -15.        23.        0.0
  IMPLANTE-2-COPY4-1         627       -15.        24.        0.0       -15.        24.        0.0
  IMPLANTE-2-COPY4-1         628       -16.        21.        0.0       -16.        21.        0.0
  IMPLANTE-2-COPY4-1         629       -15.        20.        0.0       -15.        20.        0.0
  IMPLANTE-2-COPY4-1         630        -5.        41.        0.0        -5.        41.        0.0
  IMPLANTE-2-COPY4-1         631        -7.        40.        0.0        -7.        40.        0.0
  IMPLANTE-2-COPY4-1         632        -8.        41.        0.0        -8.        41.        0.0
  IMPLANTE-2-COPY4-1         633        -3.        41.        0.0        -3.        41.        0.0
  IMPLANTE-2-COPY4-1         634        -6.        26.        0.0        -6.        26.        0.0
  IMPLANTE-2-COPY4-1         635        -5.        27.        0.0        -5.        27.        0.0
  IMPLANTE-2-COPY4-1         636         1.        34.        0.0         1.        34.        0.0
  IMPLANTE-2-COPY4-1         637         2.        34.        0.0         2.        34.        0.0
  IMPLANTE-2-COPY4-1         638        -7.        25.        0.0        -7.        25.        0.0
  IMPLANTE-2-COPY4-1         639         3.        35.        0.0         3.        35.        0.0
  IMPLANTE-2-COPY4-1         640   266.E-03        33.        0.0   270.E-03        33.        0.0
  IMPLANTE-2-COPY4-1         641  -860.E-03        32.        0.0  -857.E-03        32.        0.0
  IMPLANTE-2-COPY4-1         642         4.        36.        0.0         4.        36.        0.0
  IMPLANTE-2-COPY4-1         643        -4.        29.        0.0        -4.        29.        0.0
  IMPLANTE-2-COPY4-1         644        -8.        24.        0.0        -8.        24.        0.0
  IMPLANTE-2-COPY4-1         645        -9.        23.        0.0        -9.        23.        0.0
  IMPLANTE-2-COPY4-1         646       -12.        21.        0.0       -12.        21.        0.0
  IMPLANTE-2-COPY4-1         647        -2.        31.        0.0        -2.        31.        0.0
  IMPLANTE-2-COPY4-1         648        -3.        30.        0.0        -3.        30.        0.0
  IMPLANTE-2-COPY4-1         649        -6.        42.        0.0        -6.        42.        0.0
  IMPLANTE-2-COPY4-1         650         8.        39.        0.0         8.        39.        0.0
  IMPLANTE-2-COPY4-1         651       -10.        22.        0.0       -10.        22.        0.0
  IMPLANTE-2-COPY4-1         652       -11.        21.        0.0       -11.        21.        0.0
  IMPLANTE-2-COPY4-1         653         7.        38.        0.0         7.        38.        0.0
  IMPLANTE-2-COPY4-1         654       -13.        20.        0.0       -13.        20.        0.0
  IMPLANTE-2-COPY4-1         655       -15.        19.        0.0       -15.        19.        0.0
  IMPLANTE-2-COPY4-1         656        -8.        37.        0.0        -8.        37.        0.0
  IMPLANTE-2-COPY4-1         657         1.        38.        0.0         1.        38.        0.0
  IMPLANTE-2-COPY4-1         658        -8.        33.        0.0        -8.        33.        0.0
  IMPLANTE-2-COPY4-1         659         3.        39.        0.0         3.        39.        0.0
  IMPLANTE-2-COPY4-1         660         4.        39.        0.0         4.        38.        0.0
  IMPLANTE-2-COPY4-1         661       -12.        29.        0.0       -12.        29.        0.0
  IMPLANTE-2-COPY4-1         662       -10.        32.        0.0       -10.        32.        0.0
  IMPLANTE-2-COPY4-1         663       -11.        31.        0.0       -11.        31.        0.0
  IMPLANTE-2-COPY4-1         664       -12.        27.        0.0       -12.        27.        0.0
  IMPLANTE-2-COPY4-1         665       -14.        26.        0.0       -14.        26.        0.0
  IMPLANTE-2-COPY4-1         666       -14.        24.        0.0       -14.        24.        0.0
  IMPLANTE-2-COPY4-1         667       -14.        23.        0.0       -14.        23.        0.0
  IMPLANTE-2-COPY4-1         668        -2.        40.        0.0        -2.        40.        0.0
  IMPLANTE-2-COPY4-1         669        -7.        35.        0.0        -7.        35.        0.0
  IMPLANTE-2-COPY4-1         670        -5.        39.        0.0        -5.        39.        0.0
  IMPLANTE-2-COPY4-1         671        -7.        28.        0.0        -7.        28.        0.0
  IMPLANTE-2-COPY4-1         672         2.        35.        0.0         2.        35.        0.0
  IMPLANTE-2-COPY4-1         673        -8.        27.        0.0        -8.        27.        0.0
  IMPLANTE-2-COPY4-1         674   769.E-03        35.        0.0   773.E-03        35.        0.0
  IMPLANTE-2-COPY4-1         675        -6.        28.        0.0        -6.        28.        0.0
  IMPLANTE-2-COPY4-1         676        -2.        33.        0.0        -2.        33.        0.0
  IMPLANTE-2-COPY4-1         677  -345.E-03        34.        0.0  -342.E-03        34.        0.0
  IMPLANTE-2-COPY4-1         678         3.        36.        0.0         3.        36.        0.0
  IMPLANTE-2-COPY4-1         679        -9.        26.        0.0        -9.        26.        0.0
  IMPLANTE-2-COPY4-1         680       -10.        25.        0.0       -10.        25.        0.0
  IMPLANTE-2-COPY4-1         681        -3.        32.        0.0        -3.        32.        0.0
  IMPLANTE-2-COPY4-1         682        -5.        30.        0.0        -5.        30.        0.0
  IMPLANTE-2-COPY4-1         683        -4.        31.        0.0        -4.        31.        0.0
  IMPLANTE-2-COPY4-1         684       -11.        24.        0.0       -11.        24.        0.0
  IMPLANTE-2-COPY4-1         685       -13.        22.        0.0       -13.        22.        0.0
  IMPLANTE-2-COPY4-1         686       -12.        23.        0.0       -12.        23.        0.0
  IMPLANTE-2-COPY4-1         687       -14.        21.        0.0       -14.        21.        0.0
  IMPLANTE-2-COPY4-1         688        -7.        38.        0.0        -7.        38.        0.0
  IMPLANTE-2-COPY4-1         689        -7.        34.        0.0        -7.        34.        0.0
  IMPLANTE-2-COPY4-1         690        -3.        39.        0.0        -3.        39.        0.0
  IMPLANTE-2-COPY4-1         691  -850.E-03        39.        0.0  -845.E-03        39.        0.0
  IMPLANTE-2-COPY4-1         692        -6.        37.        0.0        -6.        37.        0.0
  IMPLANTE-2-COPY4-1         693        -6.        39.        0.0        -6.        39.        0.0
  IMPLANTE-2-COPY4-1         694        -8.        29.        0.0        -8.        29.        0.0
  IMPLANTE-2-COPY4-1         695        -7.        29.        0.0        -7.        29.        0.0
  IMPLANTE-2-COPY4-1         696   889.E-03        36.        0.0   893.E-03        36.        0.0
  IMPLANTE-2-COPY4-1         697        -2.        35.        0.0        -2.        35.        0.0
  IMPLANTE-2-COPY4-1         698        -9.        28.        0.0        -9.        28.        0.0
  IMPLANTE-2-COPY4-1         699  -537.E-03        35.        0.0  -533.E-03        35.        0.0
  IMPLANTE-2-COPY4-1         700        -3.        34.        0.0        -3.        34.        0.0
  IMPLANTE-2-COPY4-1         701        -6.        30.        0.0        -6.        30.        0.0
  IMPLANTE-2-COPY4-1         702       -10.        27.        0.0       -10.        27.        0.0
  IMPLANTE-2-COPY4-1         703        -4.        33.        0.0        -4.        33.        0.0
  IMPLANTE-2-COPY4-1         704        -5.        31.        0.0        -5.        31.        0.0
  IMPLANTE-2-COPY4-1         705       -11.        26.        0.0       -11.        26.        0.0
  IMPLANTE-2-COPY4-1         706       -13.        23.        0.0       -13.        23.        0.0
  IMPLANTE-2-COPY4-1         707       -13.        23.        0.0       -13.        23.        0.0
  IMPLANTE-2-COPY4-1         708        -6.        32.        0.0        -6.        32.        0.0
  IMPLANTE-2-COPY4-1         709        -5.        36.        0.0        -5.        36.        0.0
  IMPLANTE-2-COPY4-1         710  -234.E-03        37.        0.0  -230.E-03        37.        0.0
  IMPLANTE-2-COPY4-1         711        -2.        38.        0.0        -2.        38.        0.0
  IMPLANTE-2-COPY4-1         712        -4.        38.        0.0        -4.        38.        0.0
  IMPLANTE-2-COPY4-1         713        -8.        30.        0.0        -8.        30.        0.0
  IMPLANTE-2-COPY4-1         714        -7.        31.        0.0        -7.        31.        0.0
  IMPLANTE-2-COPY4-1         715        -2.        37.        0.0        -2.        37.        0.0
  IMPLANTE-2-COPY4-1         716        -4.        35.        0.0        -4.        35.        0.0
  IMPLANTE-2-COPY4-1         717       -10.        29.        0.0       -10.        29.        0.0
  IMPLANTE-2-COPY4-1         718        -6.        31.        0.0        -6.        31.        0.0
  IMPLANTE-2-COPY4-1         719        -5.        33.        0.0        -5.        33.        0.0
  IMPLANTE-2-COPY4-1         720       -12.        26.        0.0       -12.        26.        0.0
  IMPLANTE-2-COPY4-1         721        -6.        34.        0.0        -6.        34.        0.0
  IMPLANTE-2-COPY4-1         722        -5.        37.        0.0        -5.        37.        0.0
  IMPLANTE-2-COPY4-1         723        -4.        37.        0.0        -4.        37.        0.0
  IMPLANTE-2-COPY4-1         724        -5.        38.        0.0        -5.        38.        0.0
  IMPLANTE-2-COPY4-1         725        -7.        32.        0.0        -7.        32.        0.0
  IMPLANTE-2-COPY4-1         726       -10.        31.        0.0       -10.        31.        0.0
  IMPLANTE-2-COPY4-1         727       -10.        30.        0.0       -10.        30.        0.0
  IMPLANTE-2-COPY4-1         728        -3.        35.        0.0        -3.        35.        0.0
  IMPLANTE-2-COPY4-1         729        -3.        36.        0.0        -3.        36.        0.0
  IMPLANTE-2-COPY4-1         730        -4.        36.        0.0        -4.        36.        0.0
  IMPLANTE-2-COPY4-1         731        -8.        32.        0.0        -8.        32.        0.0
  IMPLANTE-2-COPY4-1         732         2.        37.        0.0         2.        37.        0.0
  IMPLANTE-2-COPY4-1         733       -16.        14.        0.0       -16.        14.        0.0
  IMPLANTE-2-COPY4-1         734        16.        42.        0.0        16.        42.        0.0
  IMPLANTE-2-COPY4-1         735        15.        43.        0.0        15.        43.        0.0
  IMPLANTE-2-COPY4-1         736        -6.        41.        0.0        -6.        41.        0.0
  IMPLANTE-2-COPY4-1         737        -8.        39.        0.0        -8.        39.        0.0
  IMPLANTE-2-COPY4-1         738       -15.        15.        0.0       -15.        15.        0.0
  IMPLANTE-2-COPY4-1         739        -4.        40.        0.0        -4.        40.        0.0
  IMPLANTE-2-COPY4-1         740        -2.        41.        0.0        -2.        41.        0.0
  IMPLANTE-2-COPY4-1         741         5.        37.        0.0         5.        37.        0.0
  IMPLANTE-2-COPY4-1         742        -5.        35.        0.0        -5.        35.        0.0
  IMPLANTE-2-COPY4-1         743        -9.        33.        0.0        -9.        33.        0.0
  IMPLANTE-2-COPY4-1         744        -5.        34.        0.0        -5.        34.        0.0
  IMPLANTE-2-COPY4-1         745       -15.        22.        0.0       -15.        22.        0.0
  IMPLANTE-2-COPY4-1         746         6.        39.        0.0         6.        39.        0.0
  IMPLANTE-2-COPY4-1         747         3.        37.        0.0         3.        37.        0.0
  IMPLANTE-2-COPY4-1         748       -10.        32.        0.0       -10.        32.        0.0
  IMPLANTE-2-COPY4-1         749       -11.        30.        0.0       -11.        30.        0.0
  IMPLANTE-2-COPY4-1         750       -12.        28.        0.0       -12.        28.        0.0
  IMPLANTE-2-COPY4-1         751       -13.        26.        0.0       -13.        26.        0.0
  IMPLANTE-2-COPY4-1         752       -14.        25.        0.0       -14.        25.        0.0
  IMPLANTE-2-COPY4-1         753        -4.        32.        0.0        -4.        32.        0.0
  IMPLANTE-2-COPY4-1         754   334.E-03        35.        0.0   338.E-03        35.        0.0
  IMPLANTE-2-COPY4-1         755        -9.        31.        0.0        -9.        31.        0.0
  IMPLANTE-2-COPY4-1         756         3.        38.        0.0         3.        38.        0.0
  IMPLANTE-2-COPY4-1         757       -14.        24.        0.0       -14.        24.        0.0
  IMPLANTE-2-COPY4-1         758       -13.        24.        0.0       -13.        24.        0.0
  IMPLANTE-2-COPY4-1         759        -9.        30.        0.0        -9.        30.        0.0
  IMPLANTE-2-COPY4-1         760       -11.        30.        0.0       -11.        30.        0.0
  IMPLANTE-2-COPY4-1         761       -12.        24.        0.0       -12.        24.        0.0
  IMPLANTE-2-COPY4-1         762       -13.        25.        0.0       -13.        25.        0.0
  IMPLANTE-2-COPY4-1         763        -9.        13.        0.0        -9.        13.        0.0
  IMPLANTE-2-COPY4-1         764       -10.        13.        0.0       -10.        13.        0.0
  IMPLANTE-2-COPY4-1         765       -10.        12.        0.0       -10.        12.        0.0
  IMPLANTE-2-COPY4-1         766        -9.        12.        0.0        -9.        12.        0.0
  IMPLANTE-2-COPY4-1         767        -9.        13.        0.0        -9.        13.        0.0
  IMPLANTE-2-COPY4-1         768        -9.        12.        0.0        -9.        12.        0.0
  IMPLANTE-2-COPY4-1         769        -8.        12.        0.0        -8.        12.        0.0
  IMPLANTE-2-COPY4-1         770        -8.        13.        0.0        -8.        13.        0.0
  IMPLANTE-2-COPY4-1         771        -8.        16.        0.0        -8.        16.        0.0
  IMPLANTE-2-COPY4-1         772        -7.        16.        0.0        -7.        16.        0.0
  IMPLANTE-2-COPY4-1         773        -7.        17.        0.0        -7.        17.        0.0
  IMPLANTE-2-COPY4-1         774        -8.        17.        0.0        -8.        17.        0.0
  IMPLANTE-2-COPY4-1         775        -4.        18.        0.0        -4.        18.        0.0
  IMPLANTE-2-COPY4-1         776        -4.        17.        0.0        -4.        17.        0.0
  IMPLANTE-2-COPY4-1         777        -3.        17.        0.0        -3.        17.        0.0
  IMPLANTE-2-COPY4-1         778        -3.        18.        0.0        -3.        18.        0.0
  IMPLANTE-2-COPY4-1         779         8.        32.        0.0         8.        32.        0.0
  IMPLANTE-2-COPY4-1         780         9.        31.        0.0         9.        31.        0.0
  IMPLANTE-2-COPY4-1         781         9.        33.        0.0         9.        33.        0.0
  IMPLANTE-2-COPY4-1         782         8.        33.        0.0         8.        33.        0.0
  IMPLANTE-2-COPY4-1         783        11.        35.        0.0        11.        35.        0.0
  IMPLANTE-2-COPY4-1         784        12.        34.        0.0        12.        34.        0.0
  IMPLANTE-2-COPY4-1         785        12.        36.        0.0        12.        36.        0.0
  IMPLANTE-2-COPY4-1         786        11.        36.        0.0        11.        36.        0.0
  IMPLANTE-2-COPY4-1         787        12.        34.        0.0        12.        34.        0.0
  IMPLANTE-2-COPY4-1         788        13.        33.        0.0        13.        33.        0.0
  IMPLANTE-2-COPY4-1         789        13.        33.        0.0        13.        33.        0.0
  IMPLANTE-2-COPY4-1         790        13.        34.        0.0        13.        34.        0.0
  IMPLANTE-2-COPY4-1         791        13.        35.        0.0        13.        35.        0.0
  IMPLANTE-2-COPY4-1         792        13.        35.        0.0        13.        35.        0.0
  IMPLANTE-2-COPY4-1         793        13.        34.        0.0        13.        34.        0.0
  IMPLANTE-2-COPY4-1         794         4.        27.        0.0         4.        27.        0.0
  IMPLANTE-2-COPY4-1         795         4.        28.        0.0         4.        28.        0.0
  IMPLANTE-2-COPY4-1         796         3.        28.        0.0         3.        28.        0.0
  IMPLANTE-2-COPY4-1         797         3.        27.        0.0         3.        27.        0.0
  IMPLANTE-2-COPY4-1         798        -2.        18.        0.0        -2.        18.        0.0
  IMPLANTE-2-COPY4-1         799        -1.        19.        0.0        -1.        19.        0.0
  IMPLANTE-2-COPY4-1         800        -2.        19.        0.0        -2.        19.        0.0
  IMPLANTE-2-COPY4-1         801        -2.        18.        0.0        -2.        18.        0.0
  IMPLANTE-2-COPY4-1         802         6.        12.        0.0         6.        12.        0.0
  IMPLANTE-2-COPY4-1         803         6.        11.        0.0         6.        11.        0.0
  IMPLANTE-2-COPY4-1         804         7.        11.        0.0         7.        11.        0.0
  IMPLANTE-2-COPY4-1         805         7.        12.        0.0         7.        12.        0.0
  IMPLANTE-2-COPY4-1         806        -2.        23.        0.0        -2.        23.        0.0
  IMPLANTE-2-COPY4-1         807        -1.        23.        0.0        -1.        23.        0.0
  IMPLANTE-2-COPY4-1         808  -408.E-03        23.        0.0  -404.E-03        23.        0.0
  IMPLANTE-2-COPY4-1         809  -455.E-03        24.        0.0  -451.E-03        24.        0.0
  IMPLANTE-2-COPY4-1         810       -11.        13.        0.0       -11.        13.        0.0
  IMPLANTE-2-COPY4-1         811       -10.        14.        0.0       -10.        14.        0.0
  IMPLANTE-2-COPY4-1         812       -11.        14.        0.0       -11.        14.        0.0
  IMPLANTE-2-COPY4-1         813        -9.        15.        0.0        -9.        15.        0.0
  IMPLANTE-2-COPY4-1         814       -10.        15.        0.0       -10.        15.        0.0
  IMPLANTE-2-COPY4-1         815        -9.        14.        0.0        -9.        14.        0.0
  IMPLANTE-2-COPY4-1         816        -8.        15.        0.0        -8.        15.        0.0
  IMPLANTE-2-COPY4-1         817        -9.        16.        0.0        -9.        16.        0.0
  IMPLANTE-2-COPY4-1         818        -6.        17.        0.0        -6.        17.        0.0
  IMPLANTE-2-COPY4-1         819        -6.        18.        0.0        -6.        18.        0.0
  IMPLANTE-2-COPY4-1         820        -7.        18.        0.0        -7.        18.        0.0
  IMPLANTE-2-COPY4-1         821        -5.        19.        0.0        -5.        19.        0.0
  IMPLANTE-2-COPY4-1         822        -6.        19.        0.0        -6.        19.        0.0
  IMPLANTE-2-COPY4-1         823        -5.        18.        0.0        -5.        18.        0.0
  IMPLANTE-2-COPY4-1         824        -4.        19.        0.0        -4.        19.        0.0
  IMPLANTE-2-COPY4-1         825        -4.        20.        0.0        -4.        20.        0.0
  IMPLANTE-2-COPY4-1         826        -5.        20.        0.0        -5.        20.        0.0
  IMPLANTE-2-COPY4-1         827        -3.        19.        0.0        -3.        19.        0.0
  IMPLANTE-2-COPY4-1         828        -4.        19.        0.0        -4.        19.        0.0
  IMPLANTE-2-COPY4-1         829        -4.        18.        0.0        -4.        18.        0.0
  IMPLANTE-2-COPY4-1         830        -1.        22.        0.0        -1.        22.        0.0
  IMPLANTE-2-COPY4-1         831        -3.        22.        0.0        -3.        22.        0.0
  IMPLANTE-2-COPY4-1         832        -2.        22.        0.0        -2.        22.        0.0
  IMPLANTE-2-COPY4-1         833  -550.E-03        14.        0.0  -547.E-03        14.        0.0
  IMPLANTE-2-COPY4-1         834   504.E-03        14.        0.0   508.E-03        14.        0.0
  IMPLANTE-2-COPY4-1         835   495.E-03        15.        0.0   498.E-03        15.        0.0
  IMPLANTE-2-COPY4-1         836  -560.E-03        15.        0.0  -557.E-03        15.        0.0
  IMPLANTE-2-COPY4-1         837         8.        28.        0.0         8.        28.        0.0
  IMPLANTE-2-COPY4-1         838         9.        28.        0.0         9.        28.        0.0
  IMPLANTE-2-COPY4-1         839         9.        29.        0.0         9.        29.        0.0
  IMPLANTE-2-COPY4-1         840         8.        29.        0.0         8.        29.        0.0
  IMPLANTE-2-COPY4-1         841         7.        27.        0.0         7.        27.        0.0
  IMPLANTE-2-COPY4-1         842         6.        27.        0.0         6.        27.        0.0
  IMPLANTE-2-COPY4-1         843         6.        26.        0.0         6.        26.        0.0
  IMPLANTE-2-COPY4-1         844         7.        26.        0.0         7.        26.        0.0
  IMPLANTE-2-COPY4-1         845         6.        30.        0.0         6.        30.        0.0
  IMPLANTE-2-COPY4-1         846         5.        30.        0.0         5.        30.        0.0
  IMPLANTE-2-COPY4-1         847         5.        29.        0.0         5.        29.        0.0
  IMPLANTE-2-COPY4-1         848         6.        29.        0.0         6.        29.        0.0
  IMPLANTE-2-COPY4-1         849         7.        31.        0.0         7.        31.        0.0
  IMPLANTE-2-COPY4-1         850         6.        31.        0.0         6.        31.        0.0
  IMPLANTE-2-COPY4-1         851         7.        29.        0.0         7.        29.        0.0
  IMPLANTE-2-COPY4-1         852         8.        30.        0.0         8.        30.        0.0
  IMPLANTE-2-COPY4-1         853         7.        32.        0.0         7.        32.        0.0
  IMPLANTE-2-COPY4-1         854        10.        32.        0.0        10.        32.        0.0
  IMPLANTE-2-COPY4-1         855        10.        34.        0.0        10.        34.        0.0
  IMPLANTE-2-COPY4-1         856         9.        34.        0.0         9.        34.        0.0
  IMPLANTE-2-COPY4-1         857        10.        35.        0.0        10.        35.        0.0
  IMPLANTE-2-COPY4-1         858        11.        33.        0.0        11.        33.        0.0
  IMPLANTE-2-COPY4-1         859       -10.        11.        0.0       -10.        11.        0.0
  IMPLANTE-2-COPY4-1         860        -9.        11.        0.0        -9.        11.        0.0
  IMPLANTE-2-COPY4-1         861        -8.        14.        0.0        -8.        14.        0.0
  IMPLANTE-2-COPY4-1         862   636.E-03        23.        0.0   639.E-03        23.        0.0
  IMPLANTE-2-COPY4-1         863  -292.E-03        22.        0.0  -288.E-03        22.        0.0
  IMPLANTE-2-COPY4-1         864   752.E-03        22.        0.0   755.E-03        22.        0.0
  IMPLANTE-2-COPY4-1         865         3.        10.        0.0         3.        10.        0.0
  IMPLANTE-2-COPY4-1         866         4.        10.        0.0         4.        10.        0.0
  IMPLANTE-2-COPY4-1         867         4.        11.        0.0         4.        11.        0.0
  IMPLANTE-2-COPY4-1         868         3.        11.        0.0         3.        11.        0.0
  IMPLANTE-2-COPY4-1         869         7.         9.        0.0         7.         9.        0.0
  IMPLANTE-2-COPY4-1         870         7.         8.        0.0         7.         8.        0.0
  IMPLANTE-2-COPY4-1         871         8.         8.        0.0         8.         8.        0.0
  IMPLANTE-2-COPY4-1         872         8.         9.        0.0         8.         9.        0.0
  IMPLANTE-2-COPY4-1         873        15.        20.        0.0        15.        20.        0.0
  IMPLANTE-2-COPY4-1         874        16.        20.        0.0        16.        20.        0.0
  IMPLANTE-2-COPY4-1         875        16.        21.        0.0        16.        21.        0.0
  IMPLANTE-2-COPY4-1         876        15.        21.        0.0        15.        21.        0.0
  IMPLANTE-2-COPY4-1         877        17.        18.        0.0        17.        18.        0.0
  IMPLANTE-2-COPY4-1         878        18.        18.        0.0        18.        18.        0.0
  IMPLANTE-2-COPY4-1         879        18.        19.        0.0        18.        19.        0.0
  IMPLANTE-2-COPY4-1         880        17.        19.        0.0        17.        19.        0.0
  IMPLANTE-2-COPY4-1         881        10.         6.        0.0        10.         6.        0.0
  IMPLANTE-2-COPY4-1         882        10.         7.        0.0        10.         7.        0.0
  IMPLANTE-2-COPY4-1         883         9.         7.        0.0         9.         7.        0.0
  IMPLANTE-2-COPY4-1         884         9.         6.        0.0         9.         6.        0.0
  IMPLANTE-2-COPY4-1         885        23.         6.        0.0        23.         6.        0.0
  IMPLANTE-2-COPY4-1         886        23.         7.        0.0        23.         7.        0.0
  IMPLANTE-2-COPY4-1         887        22.         7.        0.0        22.         7.        0.0
  IMPLANTE-2-COPY4-1         888        22.         6.        0.0        22.         6.        0.0
  IMPLANTE-2-COPY4-1         889        24.        12.        0.0        24.        12.        0.0
  IMPLANTE-2-COPY4-1         890        23.        12.        0.0        23.        12.        0.0
  IMPLANTE-2-COPY4-1         891        23.        11.        0.0        23.        11.        0.0
  IMPLANTE-2-COPY4-1         892        24.        11.        0.0        24.        11.        0.0
  IMPLANTE-2-COPY4-1         893        23.         8.        0.0        23.         8.        0.0
  IMPLANTE-2-COPY4-1         894        24.         7.        0.0        24.         7.        0.0
  IMPLANTE-2-COPY4-1         895        24.         8.        0.0        24.         8.        0.0
  IMPLANTE-2-COPY4-1         896        12.         2.        0.0        12.         2.        0.0
  IMPLANTE-2-COPY4-1         897        11.         3.        0.0        11.         3.        0.0
  IMPLANTE-2-COPY4-1         898        11.         2.        0.0        11.         2.        0.0
  IMPLANTE-2-COPY4-1         899        12.         1.        0.0        12.         1.        0.0
  IMPLANTE-2-COPY4-1         900        21.        11.        0.0        21.        11.        0.0
  IMPLANTE-2-COPY4-1         901        20.        11.        0.0        20.        11.        0.0
  IMPLANTE-2-COPY4-1         902        20.        10.        0.0        20.        10.        0.0
  IMPLANTE-2-COPY4-1         903        21.        10.        0.0        21.        10.        0.0
  IMPLANTE-2-COPY4-1         904        18.         5.        0.0        18.         5.        0.0
  IMPLANTE-2-COPY4-1         905        18.         6.        0.0        18.         6.        0.0
  IMPLANTE-2-COPY4-1         906        17.         6.        0.0        17.         6.        0.0
  IMPLANTE-2-COPY4-1         907        17.         5.        0.0        17.         5.        0.0
  IMPLANTE-2-COPY4-1         908        14.   309.E-03        0.0        14.   308.E-03        0.0
  IMPLANTE-2-COPY4-1         909        13.   361.E-03        0.0        13.   360.E-03        0.0
  IMPLANTE-2-COPY4-1         910        13.  -685.E-03        0.0        13.  -686.E-03        0.0
  IMPLANTE-2-COPY4-1         911        14.  -737.E-03        0.0        14.  -738.E-03        0.0
  IMPLANTE-2-COPY4-1         912        15.  -767.E-03        0.0        15.  -768.E-03        0.0
  IMPLANTE-2-COPY4-1         913        14.        -2.        0.0        14.        -2.        0.0
  IMPLANTE-2-COPY4-1         914        15.        -2.        0.0        15.        -2.        0.0
  IMPLANTE-2-COPY4-1         915        20.         2.        0.0        20.         2.        0.0
  IMPLANTE-2-COPY4-1         916        20.         3.        0.0        20.         3.        0.0
  IMPLANTE-2-COPY4-1         917        19.         3.        0.0        19.         3.        0.0
  IMPLANTE-2-COPY4-1         918        19.         2.        0.0        19.         2.        0.0
  IMPLANTE-2-COPY4-1         919        21.         3.        0.0        21.         3.        0.0
  IMPLANTE-2-COPY4-1         920        21.         5.        0.0        21.         5.        0.0
  IMPLANTE-2-COPY4-1         921        20.         5.        0.0        20.         5.        0.0
  IMPLANTE-2-COPY4-1         922        21.         6.        0.0        21.         6.        0.0
  IMPLANTE-2-COPY4-1         923        22.         4.        0.0        22.         4.        0.0
  IMPLANTE-2-COPY4-1         924        22.        12.        0.0        22.        12.        0.0
  IMPLANTE-2-COPY4-1         925        23.        13.        0.0        23.        13.        0.0
  IMPLANTE-2-COPY4-1         926        22.        13.        0.0        22.        13.        0.0
  IMPLANTE-2-COPY4-1         927        23.        10.        0.0        23.        10.        0.0
  IMPLANTE-2-COPY4-1         928        22.        11.        0.0        22.        11.        0.0
  IMPLANTE-2-COPY4-1         929        22.        10.        0.0        22.        10.        0.0
  IMPLANTE-2-COPY4-1         930        25.        11.        0.0        25.        11.        0.0
  IMPLANTE-2-COPY4-1         931        24.        10.        0.0        24.        10.        0.0
  IMPLANTE-2-COPY4-1         932        25.        10.        0.0        25.        10.        0.0
  IMPLANTE-2-COPY4-1         933        20.        14.        0.0        20.        14.        0.0
  IMPLANTE-2-COPY4-1         934        21.        14.        0.0        21.        14.        0.0
  IMPLANTE-2-COPY4-1         935        21.        15.        0.0        21.        15.        0.0
  IMPLANTE-2-COPY4-1         936        20.        15.        0.0        20.        15.        0.0
  IMPLANTE-2-COPY4-1         937        25.         9.        0.0        25.         9.        0.0
  IMPLANTE-2-COPY4-1         938        26.         9.        0.0        26.         9.        0.0
  IMPLANTE-2-COPY4-1         939        27.        10.        0.0        27.        10.        0.0
  IMPLANTE-2-COPY4-1         940        19.        15.        0.0        19.        15.        0.0
  IMPLANTE-2-COPY4-1         941        20.        16.        0.0        20.        16.        0.0
  IMPLANTE-2-COPY4-1         942        19.        17.        0.0        19.        17.        0.0
  IMPLANTE-2-COPY4-1         943        12.         6.        0.0        12.         6.        0.0
  IMPLANTE-2-COPY4-1         944        12.         7.        0.0        12.         7.        0.0
  IMPLANTE-2-COPY4-1         945        11.         7.        0.0        11.         7.        0.0
  IMPLANTE-2-COPY4-1         946        11.         6.        0.0        11.         6.        0.0
  IMPLANTE-2-COPY4-1         947         8.         6.        0.0         8.         6.        0.0
  IMPLANTE-2-COPY4-1         948         8.         5.        0.0         8.         5.        0.0
  IMPLANTE-2-COPY4-1         949         9.         5.        0.0         9.         5.        0.0
  IMPLANTE-2-COPY4-1         950         8.         7.        0.0         8.         7.        0.0
  IMPLANTE-2-COPY4-1         951         7.         7.        0.0         7.         7.        0.0
  IMPLANTE-2-COPY4-1         952         7.         6.        0.0         7.         6.        0.0
  IMPLANTE-2-COPY4-1         953        13.         8.        0.0        13.         8.        0.0
  IMPLANTE-2-COPY4-1         954        12.         8.        0.0        12.         8.        0.0
  IMPLANTE-2-COPY4-1         955        13.         7.        0.0        13.         7.        0.0
  IMPLANTE-2-COPY4-1         956        15.        22.        0.0        15.        22.        0.0
  IMPLANTE-2-COPY4-1         957        14.        22.        0.0        14.        22.        0.0
  IMPLANTE-2-COPY4-1         958        14.        21.        0.0        14.        21.        0.0
  IMPLANTE-2-COPY4-1         959         6.         9.        0.0         6.         9.        0.0
  IMPLANTE-2-COPY4-1         960         5.         9.        0.0         5.         9.        0.0
  IMPLANTE-2-COPY4-1         961         5.         8.        0.0         5.         8.        0.0
  IMPLANTE-2-COPY4-1         962         6.         8.        0.0         6.         8.        0.0
  IMPLANTE-2-COPY4-1         963         4.         9.        0.0         4.         9.        0.0
  IMPLANTE-2-COPY4-1         964         5.        10.        0.0         5.        10.        0.0
  IMPLANTE-2-COPY4-1         965         6.        10.        0.0         6.        10.        0.0
  IMPLANTE-2-COPY4-1         966         5.        11.        0.0         5.        11.        0.0
  IMPLANTE-2-COPY4-1         967        10.        25.        0.0        10.        25.        0.0
  IMPLANTE-2-COPY4-1         968        10.        26.        0.0        10.        26.        0.0
  IMPLANTE-2-COPY4-1         969         9.        26.        0.0         9.        26.        0.0
  IMPLANTE-2-COPY4-1         970         9.        25.        0.0         9.        25.        0.0
  IMPLANTE-2-COPY4-1         971        10.        23.        0.0        10.        23.        0.0
  IMPLANTE-2-COPY4-1         972        11.        23.        0.0        11.        23.        0.0
  IMPLANTE-2-COPY4-1         973        11.        24.        0.0        11.        24.        0.0
  IMPLANTE-2-COPY4-1         974   587.E-03        24.        0.0   590.E-03        24.        0.0
  IMPLANTE-2-COPY4-1         975   588.E-03        25.        0.0   592.E-03        25.        0.0
  IMPLANTE-2-COPY4-1         976  -453.E-03        25.        0.0  -449.E-03        25.        0.0
  IMPLANTE-2-COPY4-1         977         2.        25.        0.0         2.        25.        0.0
  IMPLANTE-2-COPY4-1         978         2.        26.        0.0         2.        26.        0.0
  IMPLANTE-2-COPY4-1         979   617.E-03        26.        0.0   621.E-03        26.        0.0
  IMPLANTE-2-COPY4-1         980        12.        25.        0.0        12.        25.        0.0
  IMPLANTE-2-COPY4-1         981        11.        25.        0.0        11.        25.        0.0
  IMPLANTE-2-COPY4-1         982        12.        24.        0.0        12.        24.        0.0
  IMPLANTE-2-COPY4-1         983        10.        28.        0.0        10.        28.        0.0
  IMPLANTE-2-COPY4-1         984         9.        27.        0.0         9.        27.        0.0
  IMPLANTE-2-COPY4-1         985        10.        27.        0.0        10.        27.        0.0
  IMPLANTE-2-COPY4-1         986        14.        33.        0.0        14.        33.        0.0
  IMPLANTE-2-COPY4-1         987        14.        34.        0.0        14.        34.        0.0
  IMPLANTE-2-COPY4-1         988        -3.        16.        0.0        -3.        16.        0.0
  IMPLANTE-2-COPY4-1         989        -2.        16.        0.0        -2.        16.        0.0
  IMPLANTE-2-COPY4-1         990        -2.        17.        0.0        -2.        17.        0.0
  IMPLANTE-2-COPY4-1         991        -2.        20.        0.0        -2.        20.        0.0
  IMPLANTE-2-COPY4-1         992        -3.        21.        0.0        -3.        21.        0.0
  IMPLANTE-2-COPY4-1         993        -2.        15.        0.0        -2.        15.        0.0
  IMPLANTE-2-COPY4-1         994  -573.E-03        16.        0.0  -569.E-03        16.        0.0
  IMPLANTE-2-COPY4-1         995        -4.        21.        0.0        -4.        21.        0.0
  IMPLANTE-2-COPY4-1         996        -2.        21.        0.0        -2.        21.        0.0
  IMPLANTE-2-COPY4-1         997         8.        29.        0.0         8.        29.        0.0
  IMPLANTE-2-COPY4-1         998         7.        29.        0.0         7.        29.        0.0
  IMPLANTE-2-COPY4-1         999        12.        33.        0.0        12.        33.        0.0
  IMPLANTE-2-COPY4-1        1000        12.        34.        0.0        12.        34.        0.0
  IMPLANTE-2-COPY4-1        1001   512.E-03        13.        0.0   515.E-03        13.        0.0
  IMPLANTE-2-COPY4-1        1002         2.        13.        0.0         2.        13.        0.0
  IMPLANTE-2-COPY4-1        1003         2.        14.        0.0         2.        14.        0.0
  IMPLANTE-2-COPY4-1        1004  -586.E-03        17.        0.0  -582.E-03        17.        0.0
  IMPLANTE-2-COPY4-1        1005   465.E-03        16.        0.0   468.E-03        16.        0.0
  IMPLANTE-2-COPY4-1        1006   452.E-03        17.        0.0   456.E-03        17.        0.0
  IMPLANTE-2-COPY4-1        1007         4.        26.        0.0         4.        26.        0.0
  IMPLANTE-2-COPY4-1        1008         5.        26.        0.0         5.        26.        0.0
  IMPLANTE-2-COPY4-1        1009         5.        27.        0.0         5.        27.        0.0
  IMPLANTE-2-COPY4-1        1010         2.        27.        0.0         2.        27.        0.0
  IMPLANTE-2-COPY4-1        1011         3.        26.        0.0         3.        26.        0.0
  IMPLANTE-2-COPY4-1        1012         6.        28.        0.0         6.        28.        0.0
  IMPLANTE-2-COPY4-1        1013         5.        28.        0.0         5.        28.        0.0
  IMPLANTE-2-COPY4-1        1014         4.        29.        0.0         4.        29.        0.0
  IMPLANTE-2-COPY4-1        1015        10.         3.        0.0        10.         3.        0.0
  IMPLANTE-2-COPY4-1        1016        11.         4.        0.0        11.         4.        0.0
  IMPLANTE-2-COPY4-1        1017        10.         4.        0.0        10.         4.        0.0
  IMPLANTE-2-COPY4-1        1018        13.         1.        0.0        13.         1.        0.0
  IMPLANTE-2-COPY4-1        1019        12.   430.E-03        0.0        12.   429.E-03        0.0
  IMPLANTE-2-COPY4-1        1020        24.         9.        0.0        24.         9.        0.0
  IMPLANTE-2-COPY4-1        1021        25.         8.        0.0        25.         8.        0.0
  IMPLANTE-2-COPY4-1        1022         9.         4.        0.0         9.         4.        0.0
  IMPLANTE-2-COPY4-1        1023        10.         5.        0.0        10.         5.        0.0
  IMPLANTE-2-COPY4-1        1024        17.         2.        0.0        17.         2.        0.0
  IMPLANTE-2-COPY4-1        1025        16.         2.        0.0        16.         2.        0.0
  IMPLANTE-2-COPY4-1        1026        15.         1.        0.0        15.         1.        0.0
  IMPLANTE-2-COPY4-1        1027        17.         1.        0.0        17.         1.        0.0
  IMPLANTE-2-COPY4-1        1028         2.        12.        0.0         2.        12.        0.0
  IMPLANTE-2-COPY4-1        1029         3.        12.        0.0         3.        12.        0.0
  IMPLANTE-2-COPY4-1        1030        11.        27.        0.0        11.        27.        0.0
  IMPLANTE-2-COPY4-1        1031         6.         7.        0.0         6.         7.        0.0
  IMPLANTE-2-COPY4-1        1032        14.         5.        0.0        14.         5.        0.0
  IMPLANTE-2-COPY4-1        1033        16.         5.        0.0        16.         5.        0.0
  IMPLANTE-2-COPY4-1        1034        16.         6.        0.0        16.         6.        0.0
  IMPLANTE-2-COPY4-1        1035        15.         6.        0.0        15.         6.        0.0
  IMPLANTE-2-COPY4-1        1036         7.        10.        0.0         7.        10.        0.0
  IMPLANTE-2-COPY4-1        1037        11.         5.        0.0        11.         5.        0.0
  IMPLANTE-2-COPY4-1        1038        16.        19.        0.0        16.        19.        0.0
  IMPLANTE-2-COPY4-1        1039        17.        20.        0.0        17.        20.        0.0
  IMPLANTE-2-COPY4-1        1040   311.E-03        19.        0.0   314.E-03        19.        0.0
  IMPLANTE-2-COPY4-1        1041   107.E-03        20.        0.0   110.E-03        20.        0.0
  IMPLANTE-2-COPY4-1        1042  -783.E-03        20.        0.0  -779.E-03        20.        0.0
  IMPLANTE-2-COPY4-1        1043  -579.E-03        19.        0.0  -576.E-03        19.        0.0
  IMPLANTE-2-COPY4-1        1044        14.         1.        0.0        14.         1.        0.0
  IMPLANTE-2-COPY4-1        1045        15.   287.E-03        0.0        15.   287.E-03        0.0
  IMPLANTE-2-COPY4-1        1046         2.        15.        0.0         2.        15.        0.0
  IMPLANTE-2-COPY4-1        1047         2.        16.        0.0         2.        16.        0.0
  IMPLANTE-2-COPY4-1        1048        21.         7.        0.0        21.         7.        0.0
  IMPLANTE-2-COPY4-1        1049        22.         8.        0.0        22.         8.        0.0
  IMPLANTE-2-COPY4-1        1050        21.         8.        0.0        21.         8.        0.0
  IMPLANTE-2-COPY4-1        1051        13.        22.        0.0        13.        22.        0.0
  IMPLANTE-2-COPY4-1        1052        14.        23.        0.0        14.        23.        0.0
  IMPLANTE-2-COPY4-1        1053        13.        23.        0.0        13.        23.        0.0
  IMPLANTE-2-COPY4-1        1054        17.  -776.E-03        0.0        17.  -777.E-03        0.0
  IMPLANTE-2-COPY4-1        1055        17.   279.E-03        0.0        17.   278.E-03        0.0
  IMPLANTE-2-COPY4-1        1056        18.         2.        0.0        18.         2.        0.0
  IMPLANTE-2-COPY4-1        1057        18.         1.        0.0        18.         1.        0.0
  IMPLANTE-2-COPY4-1        1058        19.         1.        0.0        19.         1.        0.0
  IMPLANTE-2-COPY4-1        1059        13.        24.        0.0        13.        24.        0.0
  IMPLANTE-2-COPY4-1        1060        12.        23.        0.0        12.        23.        0.0
  IMPLANTE-2-COPY4-1        1061        19.        18.        0.0        19.        18.        0.0
  IMPLANTE-2-COPY4-1        1062        18.        17.        0.0        18.        17.        0.0
  IMPLANTE-2-COPY4-1        1063         2.        24.        0.0         2.        24.        0.0
  IMPLANTE-2-COPY4-1        1064         3.        24.        0.0         3.        24.        0.0
  IMPLANTE-2-COPY4-1        1065         3.        25.        0.0         3.        25.        0.0
  IMPLANTE-2-COPY4-1        1066        10.        22.        0.0        10.        22.        0.0
  IMPLANTE-2-COPY4-1        1067        11.        21.        0.0        11.        21.        0.0
  IMPLANTE-2-COPY4-1        1068        11.        22.        0.0        11.        22.        0.0
  IMPLANTE-2-COPY4-1        1069        10.        23.        0.0        10.        23.        0.0
  IMPLANTE-2-COPY4-1        1070        21.         9.        0.0        21.         9.        0.0
  IMPLANTE-2-COPY4-1        1071        22.         9.        0.0        22.         9.        0.0
  IMPLANTE-2-COPY4-1        1072        15.        19.        0.0        15.        19.        0.0
  IMPLANTE-2-COPY4-1        1073        15.        18.        0.0        15.        18.        0.0
  IMPLANTE-2-COPY4-1        1074        16.        18.        0.0        16.        18.        0.0
  IMPLANTE-2-COPY4-1        1075        22.        14.        0.0        22.        14.        0.0
  IMPLANTE-2-COPY4-1        1076        21.        13.        0.0        21.        13.        0.0
  IMPLANTE-2-COPY4-1        1077        19.        14.        0.0        19.        14.        0.0
  IMPLANTE-2-COPY4-1        1078        19.        13.        0.0        19.        13.        0.0
  IMPLANTE-2-COPY4-1        1079        20.        13.        0.0        20.        13.        0.0
  IMPLANTE-2-COPY4-1        1080        18.        13.        0.0        18.        13.        0.0
  IMPLANTE-2-COPY4-1        1081        18.        12.        0.0        18.        12.        0.0
  IMPLANTE-2-COPY4-1        1082        19.        12.        0.0        19.        12.        0.0
  IMPLANTE-2-COPY4-1        1083         9.         9.        0.0         9.         9.        0.0
  IMPLANTE-2-COPY4-1        1084         9.        10.        0.0         9.        10.        0.0
  IMPLANTE-2-COPY4-1        1085         8.        10.        0.0         8.        10.        0.0
  IMPLANTE-2-COPY4-1        1086        14.        20.        0.0        14.        20.        0.0
  IMPLANTE-2-COPY4-1        1087        13.        21.        0.0        13.        21.        0.0
  IMPLANTE-2-COPY4-1        1088        13.        20.        0.0        13.        20.        0.0
  IMPLANTE-2-COPY4-1        1089        14.        19.        0.0        14.        19.        0.0
  IMPLANTE-2-COPY4-1        1090        12.        18.        0.0        12.        18.        0.0
  IMPLANTE-2-COPY4-1        1091        12.        17.        0.0        12.        17.        0.0
  IMPLANTE-2-COPY4-1        1092        13.        17.        0.0        13.        17.        0.0
  IMPLANTE-2-COPY4-1        1093        13.        18.        0.0        13.        18.        0.0
  IMPLANTE-2-COPY4-1        1094        12.        19.        0.0        12.        19.        0.0
  IMPLANTE-2-COPY4-1        1095        13.        19.        0.0        13.        19.        0.0
  IMPLANTE-2-COPY4-1        1096        12.        20.        0.0        12.        20.        0.0
  IMPLANTE-2-COPY4-1        1097        11.        19.        0.0        11.        19.        0.0
  IMPLANTE-2-COPY4-1        1098        11.        19.        0.0        11.        19.        0.0
  IMPLANTE-2-COPY4-1        1099         7.        28.        0.0         7.        28.        0.0
  IMPLANTE-2-COPY4-1        1100        -1.        21.        0.0        -1.        21.        0.0
  IMPLANTE-2-COPY4-1        1101        -2.        20.        0.0        -2.        20.        0.0
  IMPLANTE-2-COPY4-1        1102  -520.E-03        18.        0.0  -516.E-03        18.        0.0
  IMPLANTE-2-COPY4-1        1103         3.        13.        0.0         3.        13.        0.0
  IMPLANTE-2-COPY4-1        1104         3.        14.        0.0         3.        14.        0.0
  IMPLANTE-2-COPY4-1        1105  -523.E-03        19.        0.0  -519.E-03        19.        0.0
  IMPLANTE-2-COPY4-1        1106        -1.        19.        0.0        -1.        19.        0.0
  IMPLANTE-2-COPY4-1        1107         4.        25.        0.0         4.        25.        0.0
  IMPLANTE-2-COPY4-1        1108         8.        27.        0.0         8.        27.        0.0
  IMPLANTE-2-COPY4-1        1109         8.        26.        0.0         8.        26.        0.0
  IMPLANTE-2-COPY4-1        1110         2.        23.        0.0         2.        23.        0.0
  IMPLANTE-2-COPY4-1        1111        21.        12.        0.0        21.        12.        0.0
  IMPLANTE-2-COPY4-1        1112        20.         6.        0.0        20.         6.        0.0
  IMPLANTE-2-COPY4-1        1113        19.         6.        0.0        19.         6.        0.0
  IMPLANTE-2-COPY4-1        1114        19.         5.        0.0        19.         5.        0.0
  IMPLANTE-2-COPY4-1        1115        18.         3.        0.0        18.         3.        0.0
  IMPLANTE-2-COPY4-1        1116        17.         3.        0.0        17.         3.        0.0
  IMPLANTE-2-COPY4-1        1117        13.         2.        0.0        13.         2.        0.0
  IMPLANTE-2-COPY4-1        1118        13.         3.        0.0        13.         3.        0.0
  IMPLANTE-2-COPY4-1        1119        12.         4.        0.0        12.         4.        0.0
  IMPLANTE-2-COPY4-1        1120        20.         7.        0.0        20.         7.        0.0
  IMPLANTE-2-COPY4-1        1121        18.   279.E-03        0.0        18.   278.E-03        0.0
  IMPLANTE-2-COPY4-1        1122         9.         8.        0.0         9.         8.        0.0
  IMPLANTE-2-COPY4-1        1123         4.        12.        0.0         4.        12.        0.0
  IMPLANTE-2-COPY4-1        1124         4.        13.        0.0         4.        13.        0.0
  IMPLANTE-2-COPY4-1        1125         5.        12.        0.0         5.        12.        0.0
  IMPLANTE-2-COPY4-1        1126         1.        20.        0.0         1.        20.        0.0
  IMPLANTE-2-COPY4-1        1127   900.E-03        21.        0.0   904.E-03        21.        0.0
  IMPLANTE-2-COPY4-1        1128   -84.E-03        21.        0.0   -80.E-03        21.        0.0
  IMPLANTE-2-COPY4-1        1129        12.         5.        0.0        12.         5.        0.0
  IMPLANTE-2-COPY4-1        1130        16.        14.        0.0        16.        14.        0.0
  IMPLANTE-2-COPY4-1        1131        16.        15.        0.0        16.        15.        0.0
  IMPLANTE-2-COPY4-1        1132        15.        15.        0.0        15.        15.        0.0
  IMPLANTE-2-COPY4-1        1133        14.        14.        0.0        14.        14.        0.0
  IMPLANTE-2-COPY4-1        1134        12.        22.        0.0        12.        22.        0.0
  IMPLANTE-2-COPY4-1        1135        12.        21.        0.0        12.        21.        0.0
  IMPLANTE-2-COPY4-1        1136        14.         2.        0.0        14.         2.        0.0
  IMPLANTE-2-COPY4-1        1137        14.        16.        0.0        14.        16.        0.0
  IMPLANTE-2-COPY4-1        1138        13.        15.        0.0        14.        15.        0.0
  IMPLANTE-2-COPY4-1        1139        15.        16.        0.0        15.        16.        0.0
  IMPLANTE-2-COPY4-1        1140        14.        18.        0.0        14.        18.        0.0
  IMPLANTE-2-COPY4-1        1141         8.        11.        0.0         8.        11.        0.0
  IMPLANTE-2-COPY4-1        1142        17.        17.        0.0        17.        17.        0.0
  IMPLANTE-2-COPY4-1        1143        16.        17.        0.0        16.        17.        0.0
  IMPLANTE-2-COPY4-1        1144         4.        14.        0.0         4.        14.        0.0
  IMPLANTE-2-COPY4-1        1145         5.        13.        0.0         5.        13.        0.0
  IMPLANTE-2-COPY4-1        1146         5.        14.        0.0         5.        14.        0.0
  IMPLANTE-2-COPY4-1        1147         3.        15.        0.0         3.        15.        0.0
  IMPLANTE-2-COPY4-1        1148         2.        16.        0.0         2.        16.        0.0
  IMPLANTE-2-COPY4-1        1149         1.        17.        0.0         1.        17.        0.0
  IMPLANTE-2-COPY4-1        1150        18.        15.        0.0        18.        15.        0.0
  IMPLANTE-2-COPY4-1        1151        18.        14.        0.0        18.        14.        0.0
  IMPLANTE-2-COPY4-1        1152        17.        15.        0.0        17.        15.        0.0
  IMPLANTE-2-COPY4-1        1153        20.        12.        0.0        20.        12.        0.0
  IMPLANTE-2-COPY4-1        1154         9.        11.        0.0         9.        11.        0.0
  IMPLANTE-2-COPY4-1        1155         9.        12.        0.0         9.        12.        0.0
  IMPLANTE-2-COPY4-1        1156         8.        12.        0.0         8.        12.        0.0
  IMPLANTE-2-COPY4-1        1157         7.        21.        0.0         7.        21.        0.0
  IMPLANTE-2-COPY4-1        1158         6.        21.        0.0         6.        21.        0.0
  IMPLANTE-2-COPY4-1        1159         6.        20.        0.0         6.        20.        0.0
  IMPLANTE-2-COPY4-1        1160         7.        20.        0.0         7.        20.        0.0
  IMPLANTE-2-COPY4-1        1161        17.        14.        0.0        17.        14.        0.0
  IMPLANTE-2-COPY4-1        1162        17.        13.        0.0        17.        13.        0.0
  IMPLANTE-2-COPY4-1        1163        12.        16.        0.0        12.        16.        0.0
  IMPLANTE-2-COPY4-1        1164        11.        16.        0.0        11.        16.        0.0
  IMPLANTE-2-COPY4-1        1165        12.        15.        0.0        12.        15.        0.0
  IMPLANTE-2-COPY4-1        1166        13.        16.        0.0        13.        16.        0.0
  IMPLANTE-2-COPY4-1        1167        14.        17.        0.0        14.        17.        0.0
  IMPLANTE-2-COPY4-1        1168        15.        17.        0.0        15.        17.        0.0
  IMPLANTE-2-COPY4-1        1169        10.         8.        0.0        10.         8.        0.0
  IMPLANTE-2-COPY4-1        1170        11.         8.        0.0        11.         8.        0.0
  IMPLANTE-2-COPY4-1        1171         5.        15.        0.0         5.        15.        0.0
  IMPLANTE-2-COPY4-1        1172         6.        14.        0.0         6.        14.        0.0
  IMPLANTE-2-COPY4-1        1173         6.        15.        0.0         6.        15.        0.0
  IMPLANTE-2-COPY4-1        1174   424.E-03        18.        0.0   427.E-03        18.        0.0
  IMPLANTE-2-COPY4-1        1175   421.E-03        18.        0.0   424.E-03        18.        0.0
  IMPLANTE-2-COPY4-1        1176         6.        25.        0.0         6.        25.        0.0
  IMPLANTE-2-COPY4-1        1177         5.        25.        0.0         5.        25.        0.0
  IMPLANTE-2-COPY4-1        1178         4.        24.        0.0         4.        24.        0.0
  IMPLANTE-2-COPY4-1        1179         5.        24.        0.0         5.        24.        0.0
  IMPLANTE-2-COPY4-1        1180         4.        21.        0.0         4.        21.        0.0
  IMPLANTE-2-COPY4-1        1181         4.        22.        0.0         4.        22.        0.0
  IMPLANTE-2-COPY4-1        1182         3.        22.        0.0         3.        22.        0.0
  IMPLANTE-2-COPY4-1        1183         3.        21.        0.0         3.        21.        0.0
  IMPLANTE-2-COPY4-1        1184         3.        18.        0.0         3.        18.        0.0
  IMPLANTE-2-COPY4-1        1185         3.        19.        0.0         3.        19.        0.0
  IMPLANTE-2-COPY4-1        1186         2.        19.        0.0         2.        19.        0.0
  IMPLANTE-2-COPY4-1        1187         2.        18.        0.0         2.        18.        0.0
  IMPLANTE-2-COPY4-1        1188        13.         5.        0.0        13.         5.        0.0
  IMPLANTE-2-COPY4-1        1189        13.         6.        0.0        13.         6.        0.0
  IMPLANTE-2-COPY4-1        1190        16.         3.        0.0        16.         3.        0.0
  IMPLANTE-2-COPY4-1        1191        14.         3.        0.0        14.         3.        0.0
  IMPLANTE-2-COPY4-1        1192        19.        10.        0.0        19.        10.        0.0
  IMPLANTE-2-COPY4-1        1193        19.         9.        0.0        19.         9.        0.0
  IMPLANTE-2-COPY4-1        1194        20.         9.        0.0        20.         9.        0.0
  IMPLANTE-2-COPY4-1        1195        23.         9.        0.0        23.         9.        0.0
  IMPLANTE-2-COPY4-1        1196         1.        17.        0.0         1.        17.        0.0
  IMPLANTE-2-COPY4-1        1197         4.        15.        0.0         4.        15.        0.0
  IMPLANTE-2-COPY4-1        1198        10.         9.        0.0        10.         9.        0.0
  IMPLANTE-2-COPY4-1        1199        16.        16.        0.0        16.        16.        0.0
  IMPLANTE-2-COPY4-1        1200        13.        14.        0.0        13.        14.        0.0
  IMPLANTE-2-COPY4-1        1201        12.        14.        0.0        12.        14.        0.0
  IMPLANTE-2-COPY4-1        1202        11.        20.        0.0        11.        20.        0.0
  IMPLANTE-2-COPY4-1        1203         6.        13.        0.0         6.        13.        0.0
  IMPLANTE-2-COPY4-1        1204        14.        13.        0.0        14.        13.        0.0
  IMPLANTE-2-COPY4-1        1205        14.        12.        0.0        14.        12.        0.0
  IMPLANTE-2-COPY4-1        1206        15.        12.        0.0        15.        12.        0.0
  IMPLANTE-2-COPY4-1        1207        15.        13.        0.0        15.        13.        0.0
  IMPLANTE-2-COPY4-1        1208        10.        11.        0.0        10.        11.        0.0
  IMPLANTE-2-COPY4-1        1209        10.        10.        0.0        10.        10.        0.0
  IMPLANTE-2-COPY4-1        1210        17.        11.        0.0        17.        11.        0.0
  IMPLANTE-2-COPY4-1        1211        18.        11.        0.0        18.        11.        0.0
  IMPLANTE-2-COPY4-1        1212        17.        12.        0.0        17.        12.        0.0
  IMPLANTE-2-COPY4-1        1213        20.         8.        0.0        20.         8.        0.0
  IMPLANTE-2-COPY4-1        1214        19.        11.        0.0        19.        11.        0.0
  IMPLANTE-2-COPY4-1        1215        17.         7.        0.0        17.         7.        0.0
  IMPLANTE-2-COPY4-1        1216        18.         7.        0.0        18.         7.        0.0
  IMPLANTE-2-COPY4-1        1217        18.         8.        0.0        18.         8.        0.0
  IMPLANTE-2-COPY4-1        1218        17.         8.        0.0        17.         8.        0.0
  IMPLANTE-2-COPY4-1        1219        15.         8.        0.0        15.         8.        0.0
  IMPLANTE-2-COPY4-1        1220        15.         7.        0.0        15.         7.        0.0
  IMPLANTE-2-COPY4-1        1221        16.         7.        0.0        16.         7.        0.0
  IMPLANTE-2-COPY4-1        1222        16.         8.        0.0        16.         8.        0.0
  IMPLANTE-2-COPY4-1        1223         9.        22.        0.0         9.        22.        0.0
  IMPLANTE-2-COPY4-1        1224         9.        21.        0.0         9.        21.        0.0
  IMPLANTE-2-COPY4-1        1225        10.        21.        0.0        10.        21.        0.0
  IMPLANTE-2-COPY4-1        1226         7.        13.        0.0         7.        13.        0.0
  IMPLANTE-2-COPY4-1        1227         8.        13.        0.0         8.        13.        0.0
  IMPLANTE-2-COPY4-1        1228         7.        14.        0.0         7.        14.        0.0
  IMPLANTE-2-COPY4-1        1229         9.        24.        0.0         9.        24.        0.0
  IMPLANTE-2-COPY4-1        1230         9.        23.        0.0         9.        23.        0.0
  IMPLANTE-2-COPY4-1        1231         6.        17.        0.0         6.        17.        0.0
  IMPLANTE-2-COPY4-1        1232         5.        16.        0.0         5.        16.        0.0
  IMPLANTE-2-COPY4-1        1233         6.        16.        0.0         6.        16.        0.0
  IMPLANTE-2-COPY4-1        1234         8.        25.        0.0         8.        25.        0.0
  IMPLANTE-2-COPY4-1        1235         8.        24.        0.0         8.        24.        0.0
  IMPLANTE-2-COPY4-1        1236         6.        23.        0.0         6.        23.        0.0
  IMPLANTE-2-COPY4-1        1237         6.        24.        0.0         6.        24.        0.0
  IMPLANTE-2-COPY4-1        1238         5.        23.        0.0         5.        23.        0.0
  IMPLANTE-2-COPY4-1        1239         3.        17.        0.0         3.        17.        0.0
  IMPLANTE-2-COPY4-1        1240         2.        17.        0.0         2.        17.        0.0
  IMPLANTE-2-COPY4-1        1241         3.        16.        0.0         3.        16.        0.0
  IMPLANTE-2-COPY4-1        1242         7.        19.        0.0         7.        19.        0.0
  IMPLANTE-2-COPY4-1        1243         8.        19.        0.0         8.        19.        0.0
  IMPLANTE-2-COPY4-1        1244         8.        20.        0.0         8.        20.        0.0
  IMPLANTE-2-COPY4-1        1245         1.        18.        0.0         1.        18.        0.0
  IMPLANTE-2-COPY4-1        1246         1.        19.        0.0         1.        19.        0.0
  IMPLANTE-2-COPY4-1        1247         3.        23.        0.0         3.        23.        0.0
  IMPLANTE-2-COPY4-1        1248         4.        23.        0.0         4.        23.        0.0
  IMPLANTE-2-COPY4-1        1249         2.        22.        0.0         2.        22.        0.0
  IMPLANTE-2-COPY4-1        1250         2.        21.        0.0         2.        21.        0.0
  IMPLANTE-2-COPY4-1        1251         7.        24.        0.0         7.        24.        0.0
  IMPLANTE-2-COPY4-1        1252         7.        25.        0.0         7.        25.        0.0
  IMPLANTE-2-COPY4-1        1253         4.        16.        0.0         4.        16.        0.0
  IMPLANTE-2-COPY4-1        1254         6.        22.        0.0         6.        22.        0.0
  IMPLANTE-2-COPY4-1        1255         7.        22.        0.0         7.        22.        0.0
  IMPLANTE-2-COPY4-1        1256         7.        23.        0.0         7.        23.        0.0
  IMPLANTE-2-COPY4-1        1257        19.         7.        0.0        19.         7.        0.0
  IMPLANTE-2-COPY4-1        1258        19.         8.        0.0        19.         8.        0.0
  IMPLANTE-2-COPY4-1        1259        11.         9.        0.0        11.         9.        0.0
  IMPLANTE-2-COPY4-1        1260        11.        10.        0.0        11.        10.        0.0
  IMPLANTE-2-COPY4-1        1261        14.         9.        0.0        14.         9.        0.0
  IMPLANTE-2-COPY4-1        1262        13.         9.        0.0        13.         9.        0.0
  IMPLANTE-2-COPY4-1        1263        12.         9.        0.0        12.         9.        0.0
  IMPLANTE-2-COPY4-1        1264        16.        11.        0.0        16.        11.        0.0
  IMPLANTE-2-COPY4-1        1265        16.        10.        0.0        16.        10.        0.0
  IMPLANTE-2-COPY4-1        1266        17.        10.        0.0        17.        10.        0.0
  IMPLANTE-2-COPY4-1        1267        16.        13.        0.0        16.        13.        0.0
  IMPLANTE-2-COPY4-1        1268        16.        12.        0.0        16.        12.        0.0
  IMPLANTE-2-COPY4-1        1269        18.        10.        0.0        18.        10.        0.0
  IMPLANTE-2-COPY4-1        1270         9.        13.        0.0         9.        13.        0.0
  IMPLANTE-2-COPY4-1        1271         9.        14.        0.0         9.        14.        0.0
  IMPLANTE-2-COPY4-1        1272         8.        14.        0.0         8.        14.        0.0
  IMPLANTE-2-COPY4-1        1273         8.        23.        0.0         8.        23.        0.0
  IMPLANTE-2-COPY4-1        1274         8.        22.        0.0         8.        22.        0.0
  IMPLANTE-2-COPY4-1        1275        10.        20.        0.0        10.        20.        0.0
  IMPLANTE-2-COPY4-1        1276        11.        18.        0.0        11.        18.        0.0
  IMPLANTE-2-COPY4-1        1277        11.        17.        0.0        11.        17.        0.0
  IMPLANTE-2-COPY4-1        1278        15.        10.        0.0        15.        10.        0.0
  IMPLANTE-2-COPY4-1        1279        14.        10.        0.0        14.        10.        0.0
  IMPLANTE-2-COPY4-1        1280        16.         9.        0.0        16.         9.        0.0
  IMPLANTE-2-COPY4-1        1281        10.        12.        0.0        10.        12.        0.0
  IMPLANTE-2-COPY4-1        1282        10.        13.        0.0        10.        13.        0.0
  IMPLANTE-2-COPY4-1        1283        16.        12.        0.0        16.        12.        0.0
  IMPLANTE-2-COPY4-1        1284        13.        13.        0.0        13.        13.        0.0
  IMPLANTE-2-COPY4-1        1285        11.        14.        0.0        11.        14.        0.0
  IMPLANTE-2-COPY4-1        1286        10.        14.        0.0        10.        14.        0.0
  IMPLANTE-2-COPY4-1        1287        11.        13.        0.0        11.        13.        0.0
  IMPLANTE-2-COPY4-1        1288        11.        11.        0.0        11.        11.        0.0
  IMPLANTE-2-COPY4-1        1289        11.        12.        0.0        11.        12.        0.0
  IMPLANTE-2-COPY4-1        1290         9.        20.        0.0         9.        20.        0.0
  IMPLANTE-2-COPY4-1        1291         9.        19.        0.0         9.        19.        0.0
  IMPLANTE-2-COPY4-1        1292        10.        19.        0.0        10.        19.        0.0
  IMPLANTE-2-COPY4-1        1293         9.        18.        0.0         9.        18.        0.0
  IMPLANTE-2-COPY4-1        1294         9.        17.        0.0         9.        17.        0.0
  IMPLANTE-2-COPY4-1        1295        10.        17.        0.0        10.        17.        0.0
  IMPLANTE-2-COPY4-1        1296        10.        18.        0.0        10.        18.        0.0
  IMPLANTE-2-COPY4-1        1297         7.        17.        0.0         7.        17.        0.0
  IMPLANTE-2-COPY4-1        1298         8.        17.        0.0         8.        17.        0.0
  IMPLANTE-2-COPY4-1        1299         8.        18.        0.0         8.        18.        0.0
  IMPLANTE-2-COPY4-1        1300         7.        18.        0.0         7.        18.        0.0
  IMPLANTE-2-COPY4-1        1301         7.        15.        0.0         7.        15.        0.0
  IMPLANTE-2-COPY4-1        1302         8.        16.        0.0         8.        16.        0.0
  IMPLANTE-2-COPY4-1        1303         7.        17.        0.0         7.        17.        0.0
  IMPLANTE-2-COPY4-1        1304         2.        20.        0.0         2.        20.        0.0
  IMPLANTE-2-COPY4-1        1305         3.        20.        0.0         3.        20.        0.0
  IMPLANTE-2-COPY4-1        1306        18.         9.        0.0        18.         9.        0.0
  IMPLANTE-2-COPY4-1        1307         5.        22.        0.0         5.        22.        0.0
  IMPLANTE-2-COPY4-1        1308         5.        17.        0.0         5.        17.        0.0
  IMPLANTE-2-COPY4-1        1309         4.        17.        0.0         4.        17.        0.0
  IMPLANTE-2-COPY4-1        1310         5.        19.        0.0         5.        19.        0.0
  IMPLANTE-2-COPY4-1        1311         6.        19.        0.0         6.        19.        0.0
  IMPLANTE-2-COPY4-1        1312         5.        20.        0.0         5.        20.        0.0
  IMPLANTE-2-COPY4-1        1313        17.         9.        0.0        17.         9.        0.0
  IMPLANTE-2-COPY4-1        1314        15.        11.        0.0        15.        11.        0.0
  IMPLANTE-2-COPY4-1        1315        15.        11.        0.0        15.        11.        0.0
  IMPLANTE-2-COPY4-1        1316        12.        10.        0.0        12.        10.        0.0
  IMPLANTE-2-COPY4-1        1317        12.        11.        0.0        12.        11.        0.0
  IMPLANTE-2-COPY4-1        1318        15.        12.        0.0        15.        12.        0.0
  IMPLANTE-2-COPY4-1        1319         8.        15.        0.0         8.        15.        0.0
  IMPLANTE-2-COPY4-1        1320        13.        10.        0.0        13.        10.        0.0
  IMPLANTE-2-COPY4-1        1321        10.        15.        0.0        10.        15.        0.0
  IMPLANTE-2-COPY4-1        1322         9.        15.        0.0         9.        15.        0.0
  IMPLANTE-2-COPY4-1        1323        14.        11.        0.0        14.        11.        0.0
  IMPLANTE-2-COPY4-1        1324        15.        11.        0.0        15.        11.        0.0
  IMPLANTE-2-COPY4-1        1325        14.        11.        0.0        14.        11.        0.0
  IMPLANTE-2-COPY4-1        1326        12.        14.        0.0        12.        14.        0.0
  IMPLANTE-2-COPY4-1        1327        12.        13.        0.0        12.        13.        0.0
  IMPLANTE-2-COPY4-1        1328        13.        12.        0.0        13.        12.        0.0
  IMPLANTE-2-COPY4-1        1329        11.        15.        0.0        11.        15.        0.0
  IMPLANTE-2-COPY4-1        1330        13.        12.        0.0        13.        12.        0.0
  IMPLANTE-2-COPY4-1        1331        12.        12.        0.0        12.        12.        0.0
  IMPLANTE-2-COPY4-1        1332        10.        16.        0.0        10.        16.        0.0
  IMPLANTE-2-COPY4-1        1333         8.        21.        0.0         8.        21.        0.0
  IMPLANTE-2-COPY4-1        1334         9.        16.        0.0         9.        16.        0.0
  IMPLANTE-2-COPY4-1        1335         8.        16.        0.0         8.        16.        0.0
  IMPLANTE-2-COPY4-1        1336         6.        18.        0.0         6.        18.        0.0
  IMPLANTE-2-COPY4-1        1337         5.        18.        0.0         5.        18.        0.0
  IMPLANTE-2-COPY4-1        1338         6.        17.        0.0         6.        17.        0.0
  IMPLANTE-2-COPY4-1        1339         4.        18.        0.0         4.        18.        0.0
  IMPLANTE-2-COPY4-1        1340         4.        20.        0.0         4.        20.        0.0
  IMPLANTE-2-COPY4-1        1341         5.        21.        0.0         5.        21.        0.0
  IMPLANTE-2-COPY4-1        1342         4.        19.        0.0         4.        19.        0.0
  IMPLANTE-2-COPY4-1        1343        13.        11.        0.0        13.        11.        0.0
  IMPLANTE-2-COPY4-1        1344        12.        36.        0.0        12.        36.        0.0
  IMPLANTE-2-COPY4-1        1345        -5.        21.        0.0        -5.        21.        0.0
  IMPLANTE-2-COPY4-1        1346        -3.        22.        0.0        -3.        22.        0.0
  IMPLANTE-2-COPY4-1        1347        -4.        23.        0.0        -4.        23.        0.0
  IMPLANTE-2-COPY4-1        1348   780.E-03        27.        0.0   784.E-03        27.        0.0
  IMPLANTE-2-COPY4-1        1349  -125.E-03        27.        0.0  -121.E-03        27.        0.0
  IMPLANTE-2-COPY4-1        1350  -288.E-03        26.        0.0  -284.E-03        26.        0.0
  IMPLANTE-2-COPY4-1        1351        -2.        24.        0.0        -2.        24.        0.0
  IMPLANTE-2-COPY4-1        1352        -3.        24.        0.0        -3.        24.        0.0
  IMPLANTE-2-COPY4-1        1353        13.        39.        0.0        14.        39.        0.0
  IMPLANTE-2-COPY4-1        1354        13.        39.        0.0        13.        39.        0.0
  IMPLANTE-2-COPY4-1        1355        12.        38.        0.0        12.        38.        0.0
  IMPLANTE-2-COPY4-1        1356        13.        38.        0.0        13.        38.        0.0
  IMPLANTE-2-COPY4-1        1357        10.        36.        0.0        10.        36.        0.0
  IMPLANTE-2-COPY4-1        1358        11.        37.        0.0        11.        37.        0.0
  IMPLANTE-2-COPY4-1        1359        10.        37.        0.0        10.        37.        0.0
  IMPLANTE-2-COPY4-1        1360         5.        31.        0.0         5.        31.        0.0
  IMPLANTE-2-COPY4-1        1361         4.        31.        0.0         4.        31.        0.0
  IMPLANTE-2-COPY4-1        1362         4.        30.        0.0         4.        30.        0.0
  IMPLANTE-2-COPY4-1        1363       -13.        40.        0.0       -13.        40.        0.0
  IMPLANTE-2-COPY4-1        1364       -13.        39.        0.0       -13.        39.        0.0
  IMPLANTE-2-COPY4-1        1365       -12.        39.        0.0       -12.        39.        0.0
  IMPLANTE-2-COPY4-1        1366       -12.        40.        0.0       -12.        40.        0.0
  IMPLANTE-2-COPY4-1        1367        -5.        21.        0.0        -5.        21.        0.0
  IMPLANTE-2-COPY4-1        1368        -6.        20.        0.0        -6.        20.        0.0
  IMPLANTE-2-COPY4-1        1369        -7.        20.        0.0        -7.        20.        0.0
  IMPLANTE-2-COPY4-1        1370        -8.        21.        0.0        -8.        21.        0.0
  IMPLANTE-2-COPY4-1        1371        -9.        19.        0.0        -9.        19.        0.0
  IMPLANTE-2-COPY4-1        1372        -8.        19.        0.0        -8.        19.        0.0
  IMPLANTE-2-COPY4-1        1373        -8.        18.        0.0        -8.        18.        0.0
  IMPLANTE-2-COPY4-1        1374        -9.        18.        0.0        -9.        18.        0.0
  IMPLANTE-2-COPY4-1        1375        -9.        17.        0.0        -9.        17.        0.0
  IMPLANTE-2-COPY4-1        1376        -5.        24.        0.0        -5.        24.        0.0
  IMPLANTE-2-COPY4-1        1377        -5.        25.        0.0        -5.        25.        0.0
  IMPLANTE-2-COPY4-1        1378        -6.        25.        0.0        -6.        25.        0.0
  IMPLANTE-2-COPY4-1        1379        -6.        24.        0.0        -6.        24.        0.0
  IMPLANTE-2-COPY4-1        1380       -10.        17.        0.0       -10.        17.        0.0
  IMPLANTE-2-COPY4-1        1381       -10.        16.        0.0       -10.        16.        0.0
  IMPLANTE-2-COPY4-1        1382       -11.        16.        0.0       -11.        16.        0.0
  IMPLANTE-2-COPY4-1        1383       -11.        15.        0.0       -11.        15.        0.0
  IMPLANTE-2-COPY4-1        1384       -20.        13.        0.0       -20.        13.        0.0
  IMPLANTE-2-COPY4-1        1385       -19.        12.        0.0       -19.        12.        0.0
  IMPLANTE-2-COPY4-1        1386       -19.        13.        0.0       -19.        13.        0.0
  IMPLANTE-2-COPY4-1        1387       -20.        13.        0.0       -20.        13.        0.0
  IMPLANTE-2-COPY4-1        1388       -16.        10.        0.0       -16.        10.        0.0
  IMPLANTE-2-COPY4-1        1389       -15.        10.        0.0       -15.        10.        0.0
  IMPLANTE-2-COPY4-1        1390       -15.        11.        0.0       -15.        11.        0.0
  IMPLANTE-2-COPY4-1        1391       -16.        11.        0.0       -16.        11.        0.0
  IMPLANTE-2-COPY4-1        1392        -7.        19.        0.0        -7.        19.        0.0
  IMPLANTE-2-COPY4-1        1393        -7.        20.        0.0        -7.        20.        0.0
  IMPLANTE-2-COPY4-1        1394       -16.        29.        0.0       -16.        29.        0.0
  IMPLANTE-2-COPY4-1        1395       -17.        30.        0.0       -17.        30.        0.0
  IMPLANTE-2-COPY4-1        1396       -17.        29.        0.0       -17.        29.        0.0
  IMPLANTE-2-COPY4-1        1397       -17.        28.        0.0       -17.        28.        0.0
  IMPLANTE-2-COPY4-1        1398       -10.        36.        0.0       -10.        36.        0.0
  IMPLANTE-2-COPY4-1        1399       -10.        37.        0.0       -10.        37.        0.0
  IMPLANTE-2-COPY4-1        1400       -11.        37.        0.0       -11.        37.        0.0
  IMPLANTE-2-COPY4-1        1401       -11.        36.        0.0       -11.        36.        0.0
  IMPLANTE-2-COPY4-1        1402       -18.        34.        0.0       -18.        34.        0.0
  IMPLANTE-2-COPY4-1        1403       -18.        33.        0.0       -18.        33.        0.0
  IMPLANTE-2-COPY4-1        1404       -17.        33.        0.0       -17.        33.        0.0
  IMPLANTE-2-COPY4-1        1405       -17.        34.        0.0       -17.        34.        0.0
  IMPLANTE-2-COPY4-1        1406       -11.        40.        0.0       -11.        40.        0.0
  IMPLANTE-2-COPY4-1        1407       -11.        41.        0.0       -11.        41.        0.0
  IMPLANTE-2-COPY4-1        1408       -12.        41.        0.0       -12.        41.        0.0
  IMPLANTE-2-COPY4-1        1409         2.        28.        0.0         2.        28.        0.0
  IMPLANTE-2-COPY4-1        1410   941.E-03        28.        0.0   945.E-03        28.        0.0
  IMPLANTE-2-COPY4-1        1411       -10.        38.        0.0       -10.        38.        0.0
  IMPLANTE-2-COPY4-1        1412        -9.        39.        0.0        -9.        39.        0.0
  IMPLANTE-2-COPY4-1        1413       -10.        39.        0.0       -10.        39.        0.0
  IMPLANTE-2-COPY4-1        1414       -10.        38.        0.0       -10.        38.        0.0
  IMPLANTE-2-COPY4-1        1415         3.        30.        0.0         3.        30.        0.0
  IMPLANTE-2-COPY4-1        1416         3.        29.        0.0         3.        29.        0.0
  IMPLANTE-2-COPY4-1        1417        -9.        40.        0.0        -9.        40.        0.0
  IMPLANTE-2-COPY4-1        1418        -9.        39.        0.0        -9.        39.        0.0
  IMPLANTE-2-COPY4-1        1419        -8.        40.        0.0        -8.        40.        0.0
  IMPLANTE-2-COPY4-1        1420         6.        32.        0.0         6.        32.        0.0
  IMPLANTE-2-COPY4-1        1421         5.        32.        0.0         5.        32.        0.0
  IMPLANTE-2-COPY4-1        1422        -4.        46.        0.0        -4.        46.        0.0
  IMPLANTE-2-COPY4-1        1423        -5.        45.        0.0        -5.        45.        0.0
  IMPLANTE-2-COPY4-1        1424        -4.        44.        0.0        -4.        44.        0.0
  IMPLANTE-2-COPY4-1        1425        -3.        45.        0.0        -3.        45.        0.0
  IMPLANTE-2-COPY4-1        1426         8.        34.        0.0         8.        34.        0.0
  IMPLANTE-2-COPY4-1        1427         7.        34.        0.0         7.        34.        0.0
  IMPLANTE-2-COPY4-1        1428         7.        33.        0.0         7.        33.        0.0
  IMPLANTE-2-COPY4-1        1429         9.        35.        0.0         9.        35.        0.0
  IMPLANTE-2-COPY4-1        1430         8.        35.        0.0         8.        35.        0.0
  IMPLANTE-2-COPY4-1        1431   940.E-03        42.        0.0   944.E-03        42.        0.0
  IMPLANTE-2-COPY4-1        1432   362.E-03        42.        0.0   366.E-03        42.        0.0
  IMPLANTE-2-COPY4-1        1433  -348.E-03        42.        0.0  -344.E-03        42.        0.0
  IMPLANTE-2-COPY4-1        1434   229.E-03        41.        0.0   233.E-03        41.        0.0
  IMPLANTE-2-COPY4-1        1435         8.        44.        0.0         8.        44.        0.0
  IMPLANTE-2-COPY4-1        1436         8.        44.        0.0         8.        44.        0.0
  IMPLANTE-2-COPY4-1        1437         9.        44.        0.0         9.        44.        0.0
  IMPLANTE-2-COPY4-1        1438         9.        45.        0.0         9.        45.        0.0
  IMPLANTE-2-COPY4-1        1439        15.        40.        0.0        15.        40.        0.0
  IMPLANTE-2-COPY4-1        1440        14.        40.        0.0        14.        40.        0.0
  IMPLANTE-2-COPY4-1        1441        14.        39.        0.0        14.        39.        0.0
  IMPLANTE-2-COPY4-1        1442        13.        43.        0.0        13.        43.        0.0
  IMPLANTE-2-COPY4-1        1443        13.        44.        0.0        13.        44.        0.0
  IMPLANTE-2-COPY4-1        1444        12.        43.        0.0        12.        43.        0.0
  IMPLANTE-2-COPY4-1        1445        12.        42.        0.0        12.        42.        0.0
  IMPLANTE-2-COPY4-1        1446        16.        41.        0.0        16.        41.        0.0
  IMPLANTE-2-COPY4-1        1447        15.        41.        0.0        15.        41.        0.0
  IMPLANTE-2-COPY4-1        1448        16.        40.        0.0        16.        40.        0.0
  IMPLANTE-2-COPY4-1        1449        17.        43.        0.0        17.        43.        0.0
  IMPLANTE-2-COPY4-1        1450        17.        42.        0.0        17.        42.        0.0
  IMPLANTE-2-COPY4-1        1451        18.        42.        0.0        18.        42.        0.0
  IMPLANTE-2-COPY4-1        1452        18.        43.        0.0        18.        43.        0.0
  IMPLANTE-2-COPY4-1        1453        -5.        43.        0.0        -5.        43.        0.0
  IMPLANTE-2-COPY4-1        1454        -6.        43.        0.0        -6.        43.        0.0
  IMPLANTE-2-COPY4-1        1455        -7.        42.        0.0        -7.        42.        0.0
  IMPLANTE-2-COPY4-1        1456        -6.        42.        0.0        -6.        42.        0.0
  IMPLANTE-2-COPY4-1        1457        -2.        42.        0.0        -2.        42.        0.0
  IMPLANTE-2-COPY4-1        1458        -2.        42.        0.0        -2.        42.        0.0
  IMPLANTE-2-COPY4-1        1459        -2.        41.        0.0        -2.        41.        0.0
  IMPLANTE-2-COPY4-1        1460        -1.        42.        0.0        -1.        42.        0.0
  IMPLANTE-2-COPY4-1        1461        -4.        43.        0.0        -4.        43.        0.0
  IMPLANTE-2-COPY4-1        1462        -5.        44.        0.0        -5.        44.        0.0
  IMPLANTE-2-COPY4-1        1463        -5.        43.        0.0        -5.        43.        0.0
  IMPLANTE-2-COPY4-1        1464         6.        33.        0.0         6.        33.        0.0
  IMPLANTE-2-COPY4-1        1465         9.        36.        0.0         9.        36.        0.0
  IMPLANTE-2-COPY4-1        1466         1.        45.        0.0         1.        45.        0.0
  IMPLANTE-2-COPY4-1        1467         2.        44.        0.0         2.        44.        0.0
  IMPLANTE-2-COPY4-1        1468         2.        45.        0.0         2.        45.        0.0
  IMPLANTE-2-COPY4-1        1469         2.        45.        0.0         2.        45.        0.0
  IMPLANTE-2-COPY4-1        1470         9.        46.        0.0         9.        46.        0.0
  IMPLANTE-2-COPY4-1        1471         8.        46.        0.0         8.        46.        0.0
  IMPLANTE-2-COPY4-1        1472        10.        45.        0.0        10.        45.        0.0
  IMPLANTE-2-COPY4-1        1473        10.        43.        0.0        10.        43.        0.0
  IMPLANTE-2-COPY4-1        1474        11.        44.        0.0        11.        44.        0.0
  IMPLANTE-2-COPY4-1        1475        10.        45.        0.0        10.        45.        0.0
  IMPLANTE-2-COPY4-1        1476        14.        44.        0.0        14.        44.        0.0
  IMPLANTE-2-COPY4-1        1477        14.        45.        0.0        14.        45.        0.0
  IMPLANTE-2-COPY4-1        1478        13.        45.        0.0        13.        45.        0.0
  IMPLANTE-2-COPY4-1        1479        16.        42.        0.0        16.        42.        0.0
  IMPLANTE-2-COPY4-1        1480        17.        41.        0.0        17.        41.        0.0
  IMPLANTE-2-COPY4-1        1481       -18.         8.        0.0       -18.         8.        0.0
  IMPLANTE-2-COPY4-1        1482       -17.         8.        0.0       -17.         8.        0.0
  IMPLANTE-2-COPY4-1        1483       -17.         9.        0.0       -17.         9.        0.0
  IMPLANTE-2-COPY4-1        1484       -18.        10.        0.0       -18.        10.        0.0
  IMPLANTE-2-COPY4-1        1485       -17.        10.        0.0       -17.        10.        0.0
  IMPLANTE-2-COPY4-1        1486       -16.         9.        0.0       -16.         9.        0.0
  IMPLANTE-2-COPY4-1        1487       -18.        11.        0.0       -18.        11.        0.0
  IMPLANTE-2-COPY4-1        1488       -19.        11.        0.0       -19.        11.        0.0
  IMPLANTE-2-COPY4-1        1489       -19.        10.        0.0       -19.        10.        0.0
  IMPLANTE-2-COPY4-1        1490       -18.        14.        0.0       -18.        14.        0.0
  IMPLANTE-2-COPY4-1        1491       -19.        14.        0.0       -19.        14.        0.0
  IMPLANTE-2-COPY4-1        1492       -18.        13.        0.0       -18.        13.        0.0
  IMPLANTE-2-COPY4-1        1493       -17.        19.        0.0       -17.        19.        0.0
  IMPLANTE-2-COPY4-1        1494       -18.        19.        0.0       -18.        19.        0.0
  IMPLANTE-2-COPY4-1        1495       -19.        19.        0.0       -19.        19.        0.0
  IMPLANTE-2-COPY4-1        1496       -18.        18.        0.0       -18.        18.        0.0
  IMPLANTE-2-COPY4-1        1497       -19.        18.        0.0       -19.        18.        0.0
  IMPLANTE-2-COPY4-1        1498       -20.        17.        0.0       -20.        17.        0.0
  IMPLANTE-2-COPY4-1        1499       -19.        17.        0.0       -19.        17.        0.0
  IMPLANTE-2-COPY4-1        1500       -18.        17.        0.0       -18.        17.        0.0
  IMPLANTE-2-COPY4-1        1501       -19.        21.        0.0       -19.        21.        0.0
  IMPLANTE-2-COPY4-1        1502       -19.        21.        0.0       -19.        21.        0.0
  IMPLANTE-2-COPY4-1        1503       -19.        22.        0.0       -19.        22.        0.0
  IMPLANTE-2-COPY4-1        1504       -20.        21.        0.0       -20.        21.        0.0
  IMPLANTE-2-COPY4-1        1505       -20.        20.        0.0       -20.        20.        0.0
  IMPLANTE-2-COPY4-1        1506       -21.        21.        0.0       -21.        21.        0.0
  IMPLANTE-2-COPY4-1        1507       -21.        20.        0.0       -21.        20.        0.0
  IMPLANTE-2-COPY4-1        1508       -21.        19.        0.0       -21.        19.        0.0
  IMPLANTE-2-COPY4-1        1509       -19.        27.        0.0       -19.        27.        0.0
  IMPLANTE-2-COPY4-1        1510       -20.        28.        0.0       -20.        28.        0.0
  IMPLANTE-2-COPY4-1        1511       -21.        27.        0.0       -21.        27.        0.0
  IMPLANTE-2-COPY4-1        1512       -20.        26.        0.0       -20.        26.        0.0
  IMPLANTE-2-COPY4-1        1513       -15.        31.        0.0       -15.        31.        0.0
  IMPLANTE-2-COPY4-1        1514       -15.        32.        0.0       -15.        32.        0.0
  IMPLANTE-2-COPY4-1        1515       -16.        32.        0.0       -16.        32.        0.0
  IMPLANTE-2-COPY4-1        1516       -16.        31.        0.0       -16.        31.        0.0
  IMPLANTE-2-COPY4-1        1517       -15.        32.        0.0       -15.        32.        0.0
  IMPLANTE-2-COPY4-1        1518       -15.        33.        0.0       -15.        33.        0.0
  IMPLANTE-2-COPY4-1        1519       -16.        33.        0.0       -16.        33.        0.0
  IMPLANTE-2-COPY4-1        1520       -18.        32.        0.0       -17.        32.        0.0
  IMPLANTE-2-COPY4-1        1521       -19.        33.        0.0       -19.        33.        0.0
  IMPLANTE-2-COPY4-1        1522       -18.        32.        0.0       -18.        32.        0.0
  IMPLANTE-2-COPY4-1        1523       -11.        36.        0.0       -11.        36.        0.0
  IMPLANTE-2-COPY4-1        1524       -11.        37.        0.0       -11.        37.        0.0
  IMPLANTE-2-COPY4-1        1525       -12.        37.        0.0       -12.        37.        0.0
  IMPLANTE-2-COPY4-1        1526       -12.        36.        0.0       -12.        36.        0.0
  IMPLANTE-2-COPY4-1        1527       -13.        36.        0.0       -13.        36.        0.0
  IMPLANTE-2-COPY4-1        1528       -13.        35.        0.0       -13.        35.        0.0
  IMPLANTE-2-COPY4-1        1529       -12.        35.        0.0       -12.        35.        0.0
  IMPLANTE-2-COPY4-1        1530        -1.        26.        0.0        -1.        26.        0.0
  IMPLANTE-2-COPY4-1        1531        -1.        25.        0.0        -1.        25.        0.0
  IMPLANTE-2-COPY4-1        1532        -2.        26.        0.0        -2.        26.        0.0
  IMPLANTE-2-COPY4-1        1533        -3.        26.        0.0        -3.        26.        0.0
  IMPLANTE-2-COPY4-1        1534        -3.        25.        0.0        -3.        25.        0.0
  IMPLANTE-2-COPY4-1        1535        -2.        25.        0.0        -2.        25.        0.0
  IMPLANTE-2-COPY4-1        1536       -14.        12.        0.0       -14.        12.        0.0
  IMPLANTE-2-COPY4-1        1537       -15.        12.        0.0       -15.        12.        0.0
  IMPLANTE-2-COPY4-1        1538       -14.        11.        0.0       -14.        11.        0.0
  IMPLANTE-2-COPY4-1        1539       -13.        13.        0.0       -13.        13.        0.0
  IMPLANTE-2-COPY4-1        1540       -14.        13.        0.0       -14.        13.        0.0
  IMPLANTE-2-COPY4-1        1541       -13.        12.        0.0       -13.        12.        0.0
  IMPLANTE-2-COPY4-1        1542       -12.        13.        0.0       -12.        13.        0.0
  IMPLANTE-2-COPY4-1        1543       -12.        14.        0.0       -12.        14.        0.0
  IMPLANTE-2-COPY4-1        1544       -13.        14.        0.0       -13.        14.        0.0
  IMPLANTE-2-COPY4-1        1545       -19.        14.        0.0       -19.        14.        0.0
  IMPLANTE-2-COPY4-1        1546       -20.        15.        0.0       -20.        15.        0.0
  IMPLANTE-2-COPY4-1        1547       -20.        14.        0.0       -20.        14.        0.0
  IMPLANTE-2-COPY4-1        1548       -12.        15.        0.0       -12.        15.        0.0
  IMPLANTE-2-COPY4-1        1549       -16.        12.        0.0       -16.        12.        0.0
  IMPLANTE-2-COPY4-1        1550       -16.        12.        0.0       -16.        12.        0.0
  IMPLANTE-2-COPY4-1        1551       -17.        11.        0.0       -17.        11.        0.0
  IMPLANTE-2-COPY4-1        1552       -14.        14.        0.0       -14.        14.        0.0
  IMPLANTE-2-COPY4-1        1553       -13.        15.        0.0       -13.        15.        0.0
  IMPLANTE-2-COPY4-1        1554       -14.        15.        0.0       -14.        15.        0.0
  IMPLANTE-2-COPY4-1        1555       -16.        13.        0.0       -16.        13.        0.0
  IMPLANTE-2-COPY4-1        1556       -17.        13.        0.0       -17.        13.        0.0
  IMPLANTE-2-COPY4-1        1557       -17.        12.        0.0       -17.        12.        0.0
  IMPLANTE-2-COPY4-1        1558         5.        45.        0.0         5.        45.        0.0
  IMPLANTE-2-COPY4-1        1559         5.        46.        0.0         5.        46.        0.0
  IMPLANTE-2-COPY4-1        1560         5.        47.        0.0         5.        47.        0.0
  IMPLANTE-2-COPY4-1        1561         4.        46.        0.0         4.        46.        0.0
  IMPLANTE-2-COPY4-1        1562        12.        37.        0.0        12.        37.        0.0
  IMPLANTE-2-COPY4-1        1563        11.        38.        0.0        11.        38.        0.0
  IMPLANTE-2-COPY4-1        1564        11.        42.        0.0        11.        42.        0.0
  IMPLANTE-2-COPY4-1        1565        11.        41.        0.0        11.        41.        0.0
  IMPLANTE-2-COPY4-1        1566        13.        41.        0.0        13.        41.        0.0
  IMPLANTE-2-COPY4-1        1567        14.        41.        0.0        14.        41.        0.0
  IMPLANTE-2-COPY4-1        1568        13.        40.        0.0        13.        40.        0.0
  IMPLANTE-2-COPY4-1        1569        12.        44.        0.0        12.        44.        0.0
  IMPLANTE-2-COPY4-1        1570        12.        46.        0.0        12.        46.        0.0
  IMPLANTE-2-COPY4-1        1571        11.        45.        0.0        11.        45.        0.0
  IMPLANTE-2-COPY4-1        1572         3.        46.        0.0         3.        46.        0.0
  IMPLANTE-2-COPY4-1        1573         2.        47.        0.0         2.        47.        0.0
  IMPLANTE-2-COPY4-1        1574         1.        46.        0.0         1.        46.        0.0
  IMPLANTE-2-COPY4-1        1575        -5.        45.        0.0        -5.        45.        0.0
  IMPLANTE-2-COPY4-1        1576        -6.        44.        0.0        -6.        44.        0.0
  IMPLANTE-2-COPY4-1        1577       -20.        24.        0.0       -20.        24.        0.0
  IMPLANTE-2-COPY4-1        1578       -21.        25.        0.0       -21.        25.        0.0
  IMPLANTE-2-COPY4-1        1579       -21.        24.        0.0       -21.        24.        0.0
  IMPLANTE-2-COPY4-1        1580       -21.        24.        0.0       -21.        24.        0.0
  IMPLANTE-2-COPY4-1        1581         2.        29.        0.0         2.        29.        0.0
  IMPLANTE-2-COPY4-1        1582         1.        29.        0.0         1.        29.        0.0
  IMPLANTE-2-COPY4-1        1583   189.E-03        29.        0.0   193.E-03        29.        0.0
  IMPLANTE-2-COPY4-1        1584    34.E-03        28.        0.0    37.E-03        28.        0.0
  IMPLANTE-2-COPY4-1        1585       -19.        28.        0.0       -19.        28.        0.0
  IMPLANTE-2-COPY4-1        1586       -20.        29.        0.0       -20.        29.        0.0
  IMPLANTE-2-COPY4-1        1587       -20.        29.        0.0       -20.        29.        0.0
  IMPLANTE-2-COPY4-1        1588       -15.        38.        0.0       -15.        38.        0.0
  IMPLANTE-2-COPY4-1        1589       -15.        37.        0.0       -15.        37.        0.0
  IMPLANTE-2-COPY4-1        1590       -14.        37.        0.0       -14.        37.        0.0
  IMPLANTE-2-COPY4-1        1591       -14.        38.        0.0       -14.        38.        0.0
  IMPLANTE-2-COPY4-1        1592       -14.        36.        0.0       -14.        36.        0.0
  IMPLANTE-2-COPY4-1        1593       -15.        36.        0.0       -15.        36.        0.0
  IMPLANTE-2-COPY4-1        1594       -15.        35.        0.0       -15.        35.        0.0
  IMPLANTE-2-COPY4-1        1595       -14.        35.        0.0       -14.        35.        0.0
  IMPLANTE-2-COPY4-1        1596         6.        34.        0.0         6.        34.        0.0
  IMPLANTE-2-COPY4-1        1597         7.        35.        0.0         7.        35.        0.0
  IMPLANTE-2-COPY4-1        1598         7.        35.        0.0         7.        35.        0.0
  IMPLANTE-2-COPY4-1        1599        -8.        22.        0.0        -8.        22.        0.0
  IMPLANTE-2-COPY4-1        1600        -9.        22.        0.0        -9.        22.        0.0
  IMPLANTE-2-COPY4-1        1601        -9.        21.        0.0        -9.        21.        0.0
  IMPLANTE-2-COPY4-1        1602        -9.        20.        0.0        -9.        20.        0.0
  IMPLANTE-2-COPY4-1        1603       -10.        18.        0.0       -10.        18.        0.0
  IMPLANTE-2-COPY4-1        1604       -20.        16.        0.0       -20.        16.        0.0
  IMPLANTE-2-COPY4-1        1605       -20.        16.        0.0       -20.        16.        0.0
  IMPLANTE-2-COPY4-1        1606       -21.        15.        0.0       -21.        15.        0.0
  IMPLANTE-2-COPY4-1        1607       -18.        30.        0.0       -18.        30.        0.0
  IMPLANTE-2-COPY4-1        1608       -19.        30.        0.0       -19.        30.        0.0
  IMPLANTE-2-COPY4-1        1609       -18.        29.        0.0       -18.        29.        0.0
  IMPLANTE-2-COPY4-1        1610       -11.        39.        0.0       -11.        39.        0.0
  IMPLANTE-2-COPY4-1        1611       -12.        38.        0.0       -12.        38.        0.0
  IMPLANTE-2-COPY4-1        1612       -11.        38.        0.0       -11.        38.        0.0
  IMPLANTE-2-COPY4-1        1613       -14.        39.        0.0       -14.        39.        0.0
  IMPLANTE-2-COPY4-1        1614       -13.        38.        0.0       -13.        38.        0.0
  IMPLANTE-2-COPY4-1        1615         2.        30.        0.0         2.        30.        0.0
  IMPLANTE-2-COPY4-1        1616         3.        31.        0.0         3.        31.        0.0
  IMPLANTE-2-COPY4-1        1617         2.        31.        0.0         2.        31.        0.0
  IMPLANTE-2-COPY4-1        1618         4.        32.        0.0         4.        32.        0.0
  IMPLANTE-2-COPY4-1        1619         3.        32.        0.0         3.        32.        0.0
  IMPLANTE-2-COPY4-1        1620        -9.        41.        0.0        -9.        41.        0.0
  IMPLANTE-2-COPY4-1        1621       -10.        41.        0.0       -10.        41.        0.0
  IMPLANTE-2-COPY4-1        1622       -10.        40.        0.0       -10.        40.        0.0
  IMPLANTE-2-COPY4-1        1623        11.        38.        0.0        11.        38.        0.0
  IMPLANTE-2-COPY4-1        1624        10.        38.        0.0        10.        38.        0.0
  IMPLANTE-2-COPY4-1        1625        10.        37.        0.0        10.        37.        0.0
  IMPLANTE-2-COPY4-1        1626         5.        34.        0.0         6.        34.        0.0
  IMPLANTE-2-COPY4-1        1627         5.        33.        0.0         5.        33.        0.0
  IMPLANTE-2-COPY4-1        1628         9.        36.        0.0         9.        36.        0.0
  IMPLANTE-2-COPY4-1        1629         9.        37.        0.0         9.        37.        0.0
  IMPLANTE-2-COPY4-1        1630        -3.        44.        0.0        -3.        44.        0.0
  IMPLANTE-2-COPY4-1        1631        -2.        43.        0.0        -2.        43.        0.0
  IMPLANTE-2-COPY4-1        1632        -2.        44.        0.0        -2.        44.        0.0
  IMPLANTE-2-COPY4-1        1633        -2.        45.        0.0        -2.        45.        0.0
  IMPLANTE-2-COPY4-1        1634       -10.        21.        0.0       -10.        21.        0.0
  IMPLANTE-2-COPY4-1        1635       -10.        20.        0.0       -10.        20.        0.0
  IMPLANTE-2-COPY4-1        1636         6.        43.        0.0         6.        43.        0.0
  IMPLANTE-2-COPY4-1        1637         6.        44.        0.0         6.        44.        0.0
  IMPLANTE-2-COPY4-1        1638         5.        43.        0.0         5.        43.        0.0
  IMPLANTE-2-COPY4-1        1639         5.        43.        0.0         5.        43.        0.0
  IMPLANTE-2-COPY4-1        1640         3.        45.        0.0         3.        45.        0.0
  IMPLANTE-2-COPY4-1        1641         3.        47.        0.0         3.        47.        0.0
  IMPLANTE-2-COPY4-1        1642        -7.        44.        0.0        -7.        44.        0.0
  IMPLANTE-2-COPY4-1        1643        -7.        44.        0.0        -7.        44.        0.0
  IMPLANTE-2-COPY4-1        1644  -991.E-03        41.        0.0  -987.E-03        41.        0.0
  IMPLANTE-2-COPY4-1        1645  -837.E-03        42.        0.0  -833.E-03        42.        0.0
  IMPLANTE-2-COPY4-1        1646        -3.        46.        0.0        -3.        46.        0.0
  IMPLANTE-2-COPY4-1        1647        -2.        46.        0.0        -2.        46.        0.0
  IMPLANTE-2-COPY4-1        1648        12.        40.        0.0        12.        40.        0.0
  IMPLANTE-2-COPY4-1        1649        12.        39.        0.0        12.        39.        0.0
  IMPLANTE-2-COPY4-1        1650         8.        47.        0.0         8.        47.        0.0
  IMPLANTE-2-COPY4-1        1651         7.        46.        0.0         7.        46.        0.0
  IMPLANTE-2-COPY4-1        1652         7.        45.        0.0         7.        45.        0.0
  IMPLANTE-2-COPY4-1        1653   380.E-03        47.        0.0   384.E-03        47.        0.0
  IMPLANTE-2-COPY4-1        1654  -320.E-03        46.        0.0  -316.E-03        46.        0.0
  IMPLANTE-2-COPY4-1        1655   410.E-03        45.        0.0   414.E-03        45.        0.0
  IMPLANTE-2-COPY4-1        1656         5.        45.        0.0         5.        45.        0.0
  IMPLANTE-2-COPY4-1        1657         4.        45.        0.0         4.        45.        0.0
  IMPLANTE-2-COPY4-1        1658         4.        44.        0.0         4.        44.        0.0
  IMPLANTE-2-COPY4-1        1659        15.        43.        0.0        15.        43.        0.0
  IMPLANTE-2-COPY4-1        1660        15.        42.        0.0        15.        42.        0.0
  IMPLANTE-2-COPY4-1        1661        16.        43.        0.0        16.        43.        0.0
  IMPLANTE-2-COPY4-1        1662        -3.        43.        0.0        -3.        43.        0.0
  IMPLANTE-2-COPY4-1        1663        -1.        43.        0.0        -1.        43.        0.0
  IMPLANTE-2-COPY4-1        1664        -3.        43.        0.0        -3.        43.        0.0
  IMPLANTE-2-COPY4-1        1665        -1.        46.        0.0        -1.        46.        0.0
  IMPLANTE-2-COPY4-1        1666  -968.E-03        45.        0.0  -964.E-03        45.        0.0
  IMPLANTE-2-COPY4-1        1667         7.        45.        0.0         7.        45.        0.0
  IMPLANTE-2-COPY4-1        1668         6.        45.        0.0         6.        45.        0.0
  IMPLANTE-2-COPY4-1        1669         6.        47.        0.0         6.        47.        0.0
  IMPLANTE-2-COPY4-1        1670  -258.E-03        44.        0.0  -254.E-03        44.        0.0
  IMPLANTE-2-COPY4-1        1671   412.E-03        44.        0.0   416.E-03        44.        0.0
  IMPLANTE-2-COPY4-1        1672        15.        44.        0.0        15.        44.        0.0
  IMPLANTE-2-COPY4-1        1673        16.        44.        0.0        16.        44.        0.0
  IMPLANTE-2-COPY4-1        1674        15.        44.        0.0        15.        44.        0.0
  IMPLANTE-2-COPY4-1        1675        14.        43.        0.0        14.        43.        0.0
  IMPLANTE-2-COPY4-1        1676        11.        46.        0.0        11.        46.        0.0
  IMPLANTE-2-COPY4-1        1677        10.        41.        0.0        10.        41.        0.0
  IMPLANTE-2-COPY4-1        1678        10.        41.        0.0        10.        41.        0.0
  IMPLANTE-2-COPY4-1        1679         9.        41.        0.0         9.        41.        0.0
  IMPLANTE-2-COPY4-1        1680        10.        40.        0.0        10.        40.        0.0
  IMPLANTE-2-COPY4-1        1681       -11.        42.        0.0       -11.        42.        0.0
  IMPLANTE-2-COPY4-1        1682       -10.        42.        0.0       -10.        42.        0.0
  IMPLANTE-2-COPY4-1        1683       -13.        37.        0.0       -13.        37.        0.0
  IMPLANTE-2-COPY4-1        1684       -19.        32.        0.0       -19.        32.        0.0
  IMPLANTE-2-COPY4-1        1685       -19.        31.        0.0       -19.        31.        0.0
  IMPLANTE-2-COPY4-1        1686       -18.        31.        0.0       -18.        31.        0.0
  IMPLANTE-2-COPY4-1        1687       -21.        23.        0.0       -21.        23.        0.0
  IMPLANTE-2-COPY4-1        1688       -21.        22.        0.0       -21.        22.        0.0
  IMPLANTE-2-COPY4-1        1689       -20.        23.        0.0       -20.        23.        0.0
  IMPLANTE-2-COPY4-1        1690       -16.        37.        0.0       -16.        37.        0.0
  IMPLANTE-2-COPY4-1        1691       -16.        36.        0.0       -16.        36.        0.0
  IMPLANTE-2-COPY4-1        1692       -19.        27.        0.0       -19.        27.        0.0
  IMPLANTE-2-COPY4-1        1693       -18.        28.        0.0       -18.        28.        0.0
  IMPLANTE-2-COPY4-1        1694       -20.        26.        0.0       -20.        26.        0.0
  IMPLANTE-2-COPY4-1        1695       -21.        26.        0.0       -21.        26.        0.0
  IMPLANTE-2-COPY4-1        1696       -19.        25.        0.0       -19.        25.        0.0
  IMPLANTE-2-COPY4-1        1697       -19.        23.        0.0       -19.        23.        0.0
  IMPLANTE-2-COPY4-1        1698       -19.        24.        0.0       -19.        24.        0.0
  IMPLANTE-2-COPY4-1        1699       -18.        12.        0.0       -18.        12.        0.0
  IMPLANTE-2-COPY4-1        1700       -19.        11.        0.0       -19.        11.        0.0
  IMPLANTE-2-COPY4-1        1701       -21.        18.        0.0       -21.        18.        0.0
  IMPLANTE-2-COPY4-1        1702       -21.        18.        0.0       -21.        18.        0.0
  IMPLANTE-2-COPY4-1        1703       -20.        19.        0.0       -20.        19.        0.0
  IMPLANTE-2-COPY4-1        1704       -15.        13.        0.0       -15.        13.        0.0
  IMPLANTE-2-COPY4-1        1705       -16.        13.        0.0       -16.        13.        0.0
  IMPLANTE-2-COPY4-1        1706       -19.        15.        0.0       -19.        15.        0.0
  IMPLANTE-2-COPY4-1        1707       -18.        16.        0.0       -18.        16.        0.0
  IMPLANTE-2-COPY4-1        1708       -21.        17.        0.0       -21.        17.        0.0
  IMPLANTE-2-COPY4-1        1709       -17.        33.        0.0       -17.        33.        0.0
  IMPLANTE-2-COPY4-1        1710       -17.        31.        0.0       -17.        31.        0.0
  IMPLANTE-2-COPY4-1        1711        -1.        27.        0.0        -1.        27.        0.0
  IMPLANTE-2-COPY4-1        1712  -872.E-03        28.        0.0  -868.E-03        28.        0.0
  IMPLANTE-2-COPY4-1        1713       -20.        30.        0.0       -20.        30.        0.0
  IMPLANTE-2-COPY4-1        1714       -13.        34.        0.0       -13.        34.        0.0
  IMPLANTE-2-COPY4-1        1715       -14.        34.        0.0       -14.        34.        0.0
  IMPLANTE-2-COPY4-1        1716       -17.        35.        0.0       -17.        35.        0.0
  IMPLANTE-2-COPY4-1        1717       -16.        35.        0.0       -16.        35.        0.0
  IMPLANTE-2-COPY4-1        1718       -22.        21.        0.0       -22.        21.        0.0
  IMPLANTE-2-COPY4-1        1719       -18.        12.        0.0       -17.        12.        0.0
  IMPLANTE-2-COPY4-1        1720       -19.        19.        0.0       -19.        19.        0.0
  IMPLANTE-2-COPY4-1        1721       -19.        20.        0.0       -19.        20.        0.0
  IMPLANTE-2-COPY4-1        1722       -19.        26.        0.0       -19.        26.        0.0
  IMPLANTE-2-COPY4-1        1723       -18.        27.        0.0       -18.        27.        0.0
  IMPLANTE-2-COPY4-1        1724       -15.        14.        0.0       -15.        14.        0.0
  IMPLANTE-2-COPY4-1        1725       -15.        15.        0.0       -15.        15.        0.0
  IMPLANTE-2-COPY4-1        1726       -16.        16.        0.0       -16.        16.        0.0
  IMPLANTE-2-COPY4-1        1727       -16.        15.        0.0       -16.        15.        0.0
  IMPLANTE-2-COPY4-1        1728       -16.        15.        0.0       -15.        15.        0.0
  IMPLANTE-2-COPY4-1        1729       -12.        16.        0.0       -12.        16.        0.0
  IMPLANTE-2-COPY4-1        1730       -13.        17.        0.0       -13.        17.        0.0
  IMPLANTE-2-COPY4-1        1731       -17.        15.        0.0       -17.        15.        0.0
  IMPLANTE-2-COPY4-1        1732       -17.        15.        0.0       -17.        15.        0.0
  IMPLANTE-2-COPY4-1        1733       -18.        15.        0.0       -18.        15.        0.0
  IMPLANTE-2-COPY4-1        1734       -18.        14.        0.0       -18.        14.        0.0
  IMPLANTE-2-COPY4-1        1735         3.        44.        0.0         3.        44.        0.0
  IMPLANTE-2-COPY4-1        1736  -869.E-03        44.        0.0  -865.E-03        44.        0.0
  IMPLANTE-2-COPY4-1        1737        14.        42.        0.0        14.        42.        0.0
  IMPLANTE-2-COPY4-1        1738        11.        43.        0.0        11.        43.        0.0
  IMPLANTE-2-COPY4-1        1739        11.        39.        0.0        11.        39.        0.0
  IMPLANTE-2-COPY4-1        1740         7.        44.        0.0         7.        44.        0.0
  IMPLANTE-2-COPY4-1        1741        10.        42.        0.0        10.        42.        0.0
  IMPLANTE-2-COPY4-1        1742         2.        38.        0.0         2.        38.        0.0
  IMPLANTE-2-COPY4-1        1743         3.        39.        0.0         3.        39.        0.0
  IMPLANTE-2-COPY4-1        1744         2.        40.        0.0         2.        40.        0.0
  IMPLANTE-2-COPY4-1        1745         1.        39.        0.0         1.        39.        0.0
  IMPLANTE-2-COPY4-1        1746         5.        35.        0.0         5.        35.        0.0
  IMPLANTE-2-COPY4-1        1747         5.        34.        0.0         5.        34.        0.0
  IMPLANTE-2-COPY4-1        1748         6.        35.        0.0         6.        35.        0.0
  IMPLANTE-2-COPY4-1        1749  -247.E-03        43.        0.0  -243.E-03        43.        0.0
  IMPLANTE-2-COPY4-1        1750         1.        43.        0.0         1.        43.        0.0
  IMPLANTE-2-COPY4-1        1751         1.        30.        0.0         1.        30.        0.0
  IMPLANTE-2-COPY4-1        1752        -4.        25.        0.0        -4.        25.        0.0
  IMPLANTE-2-COPY4-1        1753        -4.        24.        0.0        -4.        24.        0.0
  IMPLANTE-2-COPY4-1        1754       -17.        30.        0.0       -17.        30.        0.0
  IMPLANTE-2-COPY4-1        1755       -18.        25.        0.0       -18.        25.        0.0
  IMPLANTE-2-COPY4-1        1756        -6.        22.        0.0        -6.        22.        0.0
  IMPLANTE-2-COPY4-1        1757        -7.        22.        0.0        -7.        22.        0.0
  IMPLANTE-2-COPY4-1        1758       -19.        23.        0.0       -19.        23.        0.0
  IMPLANTE-2-COPY4-1        1759       -15.        29.        0.0       -15.        29.        0.0
  IMPLANTE-2-COPY4-1        1760       -15.        29.        0.0       -15.        29.        0.0
  IMPLANTE-2-COPY4-1        1761       -15.        30.        0.0       -15.        30.        0.0
  IMPLANTE-2-COPY4-1        1762       -16.        30.        0.0       -16.        30.        0.0
  IMPLANTE-2-COPY4-1        1763       -17.        23.        0.0       -17.        23.        0.0
  IMPLANTE-2-COPY4-1        1764       -18.        23.        0.0       -18.        23.        0.0
  IMPLANTE-2-COPY4-1        1765       -18.        22.        0.0       -18.        22.        0.0
  IMPLANTE-2-COPY4-1        1766        -2.        29.        0.0        -2.        29.        0.0
  IMPLANTE-2-COPY4-1        1767        -2.        28.        0.0        -2.        28.        0.0
  IMPLANTE-2-COPY4-1        1768  -725.E-03        29.        0.0  -722.E-03        29.        0.0
  IMPLANTE-2-COPY4-1        1769       -16.        34.        0.0       -16.        34.        0.0
  IMPLANTE-2-COPY4-1        1770       -15.        34.        0.0       -15.        34.        0.0
  IMPLANTE-2-COPY4-1        1771       -12.        34.        0.0       -12.        34.        0.0
  IMPLANTE-2-COPY4-1        1772       -11.        34.        0.0       -11.        34.        0.0
  IMPLANTE-2-COPY4-1        1773       -11.        35.        0.0       -11.        35.        0.0
  IMPLANTE-2-COPY4-1        1774       -17.        16.        0.0       -17.        16.        0.0
  IMPLANTE-2-COPY4-1        1775       -18.        17.        0.0       -18.        17.        0.0
  IMPLANTE-2-COPY4-1        1776       -17.        27.        0.0       -17.        27.        0.0
  IMPLANTE-2-COPY4-1        1777       -17.        27.        0.0       -17.        27.        0.0
  IMPLANTE-2-COPY4-1        1778       -17.        14.        0.0       -17.        14.        0.0
  IMPLANTE-2-COPY4-1        1779       -16.        14.        0.0       -16.        14.        0.0
  IMPLANTE-2-COPY4-1        1780       -14.        33.        0.0       -14.        33.        0.0
  IMPLANTE-2-COPY4-1        1781       -17.        20.        0.0       -17.        20.        0.0
  IMPLANTE-2-COPY4-1        1782       -18.        21.        0.0       -18.        21.        0.0
  IMPLANTE-2-COPY4-1        1783       -11.        17.        0.0       -11.        17.        0.0
  IMPLANTE-2-COPY4-1        1784       -12.        18.        0.0       -12.        18.        0.0
  IMPLANTE-2-COPY4-1        1785         9.        43.        0.0         9.        43.        0.0
  IMPLANTE-2-COPY4-1        1786         9.        42.        0.0         9.        42.        0.0
  IMPLANTE-2-COPY4-1        1787         8.        43.        0.0         8.        43.        0.0
  IMPLANTE-2-COPY4-1        1788         7.        43.        0.0         7.        43.        0.0
  IMPLANTE-2-COPY4-1        1789         4.        42.        0.0         4.        42.        0.0
  IMPLANTE-2-COPY4-1        1790         3.        43.        0.0         3.        43.        0.0
  IMPLANTE-2-COPY4-1        1791         2.        42.        0.0         2.        42.        0.0
  IMPLANTE-2-COPY4-1        1792         3.        41.        0.0         3.        41.        0.0
  IMPLANTE-2-COPY4-1        1793        -5.        23.        0.0        -5.        23.        0.0
  IMPLANTE-2-COPY4-1        1794        -6.        23.        0.0        -6.        23.        0.0
  IMPLANTE-2-COPY4-1        1795       -11.        19.        0.0       -10.        19.        0.0
  IMPLANTE-2-COPY4-1        1796       -18.        21.        0.0       -18.        21.        0.0
  IMPLANTE-2-COPY4-1        1797        -2.        27.        0.0        -2.        27.        0.0
  IMPLANTE-2-COPY4-1        1798       -11.        35.        0.0       -11.        35.        0.0
  IMPLANTE-2-COPY4-1        1799         4.        33.        0.0         4.        33.        0.0
  IMPLANTE-2-COPY4-1        1800       -17.        26.        0.0       -17.        26.        0.0
  IMPLANTE-2-COPY4-1        1801       -18.        26.        0.0       -18.        26.        0.0
  IMPLANTE-2-COPY4-1        1802        -9.        36.        0.0        -9.        36.        0.0
  IMPLANTE-2-COPY4-1        1803        -8.        35.        0.0        -8.        35.        0.0
  IMPLANTE-2-COPY4-1        1804        -8.        36.        0.0        -8.        36.        0.0
  IMPLANTE-2-COPY4-1        1805        -9.        37.        0.0        -9.        37.        0.0
  IMPLANTE-2-COPY4-1        1806   641.E-03        32.        0.0   645.E-03        32.        0.0
  IMPLANTE-2-COPY4-1        1807         2.        32.        0.0         2.        32.        0.0
  IMPLANTE-2-COPY4-1        1808         2.        33.        0.0         2.        33.        0.0
  IMPLANTE-2-COPY4-1        1809   826.E-03        33.        0.0   830.E-03        33.        0.0
  IMPLANTE-2-COPY4-1        1810       -17.        24.        0.0       -17.        24.        0.0
  IMPLANTE-2-COPY4-1        1811       -18.        25.        0.0       -18.        25.        0.0
  IMPLANTE-2-COPY4-1        1812       -15.        26.        0.0       -15.        26.        0.0
  IMPLANTE-2-COPY4-1        1813       -14.        26.        0.0       -14.        26.        0.0
  IMPLANTE-2-COPY4-1        1814       -15.        27.        0.0       -15.        27.        0.0
  IMPLANTE-2-COPY4-1        1815       -15.        27.        0.0       -15.        27.        0.0
  IMPLANTE-2-COPY4-1        1816        -9.        38.        0.0        -9.        38.        0.0
  IMPLANTE-2-COPY4-1        1817         8.        36.        0.0         8.        36.        0.0
  IMPLANTE-2-COPY4-1        1818         2.        42.        0.0         2.        42.        0.0
  IMPLANTE-2-COPY4-1        1819         2.        43.        0.0         2.        43.        0.0
  IMPLANTE-2-COPY4-1        1820         4.        33.        0.0         4.        33.        0.0
  IMPLANTE-2-COPY4-1        1821         3.        33.        0.0         3.        33.        0.0
  IMPLANTE-2-COPY4-1        1822         2.        32.        0.0         2.        32.        0.0
  IMPLANTE-2-COPY4-1        1823         1.        31.        0.0         1.        31.        0.0
  IMPLANTE-2-COPY4-1        1824         4.        43.        0.0         4.        43.        0.0
  IMPLANTE-2-COPY4-1        1825       -16.        28.        0.0       -16.        28.        0.0
  IMPLANTE-2-COPY4-1        1826       -15.        28.        0.0       -15.        28.        0.0
  IMPLANTE-2-COPY4-1        1827   480.E-03        31.        0.0   483.E-03        31.        0.0
  IMPLANTE-2-COPY4-1        1828   331.E-03        30.        0.0   335.E-03        30.        0.0
  IMPLANTE-2-COPY4-1        1829       -11.        33.        0.0       -11.        33.        0.0
  IMPLANTE-2-COPY4-1        1830       -12.        33.        0.0       -12.        33.        0.0
  IMPLANTE-2-COPY4-1        1831       -12.        32.        0.0       -12.        32.        0.0
  IMPLANTE-2-COPY4-1        1832       -11.        32.        0.0       -11.        32.        0.0
  IMPLANTE-2-COPY4-1        1833         5.        42.        0.0         5.        42.        0.0
  IMPLANTE-2-COPY4-1        1834         4.        43.        0.0         4.        43.        0.0
  IMPLANTE-2-COPY4-1        1835         4.        41.        0.0         4.        41.        0.0
  IMPLANTE-2-COPY4-1        1836       -16.        20.        0.0       -16.        20.        0.0
  IMPLANTE-2-COPY4-1        1837       -15.        20.        0.0       -15.        20.        0.0
  IMPLANTE-2-COPY4-1        1838       -16.        21.        0.0       -16.        21.        0.0
  IMPLANTE-2-COPY4-1        1839       -16.        20.        0.0       -16.        20.        0.0
  IMPLANTE-2-COPY4-1        1840        -8.        44.        0.0        -8.        44.        0.0
  IMPLANTE-2-COPY4-1        1841        -9.        43.        0.0        -9.        43.        0.0
  IMPLANTE-2-COPY4-1        1842        -8.        43.        0.0        -8.        43.        0.0
  IMPLANTE-2-COPY4-1        1843        -7.        40.        0.0        -7.        40.        0.0
  IMPLANTE-2-COPY4-1        1844        -6.        40.        0.0        -6.        40.        0.0
  IMPLANTE-2-COPY4-1        1845        -6.        41.        0.0        -6.        41.        0.0
  IMPLANTE-2-COPY4-1        1846        -7.        41.        0.0        -7.        41.        0.0
  IMPLANTE-2-COPY4-1        1847        -4.        42.        0.0        -4.        42.        0.0
  IMPLANTE-2-COPY4-1        1848        -3.        42.        0.0        -3.        42.        0.0
  IMPLANTE-2-COPY4-1        1849        -5.        42.        0.0        -5.        42.        0.0
  IMPLANTE-2-COPY4-1        1850        -4.        41.        0.0        -4.        41.        0.0
  IMPLANTE-2-COPY4-1        1851         8.        37.        0.0         8.        37.        0.0
  IMPLANTE-2-COPY4-1        1852         7.        37.        0.0         7.        37.        0.0
  IMPLANTE-2-COPY4-1        1853         7.        36.        0.0         7.        36.        0.0
  IMPLANTE-2-COPY4-1        1854         2.        40.        0.0         2.        40.        0.0
  IMPLANTE-2-COPY4-1        1855         3.        40.        0.0         3.        40.        0.0
  IMPLANTE-2-COPY4-1        1856         4.        41.        0.0         4.        41.        0.0
  IMPLANTE-2-COPY4-1        1857         7.        41.        0.0         7.        41.        0.0
  IMPLANTE-2-COPY4-1        1858         7.        40.        0.0         7.        40.        0.0
  IMPLANTE-2-COPY4-1        1859         8.        40.        0.0         8.        40.        0.0
  IMPLANTE-2-COPY4-1        1860         7.        41.        0.0         7.        41.        0.0
  IMPLANTE-2-COPY4-1        1861         9.        38.        0.0         9.        38.        0.0
  IMPLANTE-2-COPY4-1        1862         9.        38.        0.0         9.        38.        0.0
  IMPLANTE-2-COPY4-1        1863        10.        39.        0.0        10.        39.        0.0
  IMPLANTE-2-COPY4-1        1864         6.        42.        0.0         6.        42.        0.0
  IMPLANTE-2-COPY4-1        1865         5.        42.        0.0         5.        42.        0.0
  IMPLANTE-2-COPY4-1        1866        10.        39.        0.0        10.        39.        0.0
  IMPLANTE-2-COPY4-1        1867        11.        40.        0.0        11.        40.        0.0
  IMPLANTE-2-COPY4-1        1868         8.        42.        0.0         8.        42.        0.0
  IMPLANTE-2-COPY4-1        1869       -13.        33.        0.0       -13.        33.        0.0
  IMPLANTE-2-COPY4-1        1870        -5.        27.        0.0        -5.        27.        0.0
  IMPLANTE-2-COPY4-1        1871        -6.        27.        0.0        -6.        27.        0.0
  IMPLANTE-2-COPY4-1        1872        -6.        26.        0.0        -6.        26.        0.0
  IMPLANTE-2-COPY4-1        1873        -5.        26.        0.0        -5.        26.        0.0
  IMPLANTE-2-COPY4-1        1874        -7.        29.        0.0        -7.        29.        0.0
  IMPLANTE-2-COPY4-1        1875        -7.        28.        0.0        -7.        28.        0.0
  IMPLANTE-2-COPY4-1        1876        -6.        28.        0.0        -6.        28.        0.0
  IMPLANTE-2-COPY4-1        1877        -6.        29.        0.0        -6.        29.        0.0
  IMPLANTE-2-COPY4-1        1878       -13.        30.        0.0       -13.        30.        0.0
  IMPLANTE-2-COPY4-1        1879       -12.        30.        0.0       -12.        30.        0.0
  IMPLANTE-2-COPY4-1        1880       -13.        31.        0.0       -13.        31.        0.0
  IMPLANTE-2-COPY4-1        1881       -14.        31.        0.0       -14.        31.        0.0
  IMPLANTE-2-COPY4-1        1882       -14.        28.        0.0       -14.        28.        0.0
  IMPLANTE-2-COPY4-1        1883       -14.        27.        0.0       -14.        27.        0.0
  IMPLANTE-2-COPY4-1        1884       -16.        27.        0.0       -16.        27.        0.0
  IMPLANTE-2-COPY4-1        1885       -17.        25.        0.0       -17.        25.        0.0
  IMPLANTE-2-COPY4-1        1886       -14.        30.        0.0       -14.        30.        0.0
  IMPLANTE-2-COPY4-1        1887       -14.        31.        0.0       -14.        31.        0.0
  IMPLANTE-2-COPY4-1        1888       -14.        29.        0.0       -14.        29.        0.0
  IMPLANTE-2-COPY4-1        1889       -13.        29.        0.0       -13.        29.        0.0
  IMPLANTE-2-COPY4-1        1890       -16.        25.        0.0       -16.        25.        0.0
  IMPLANTE-2-COPY4-1        1891       -16.        26.        0.0       -16.        26.        0.0
  IMPLANTE-2-COPY4-1        1892       -17.        23.        0.0       -17.        23.        0.0
  IMPLANTE-2-COPY4-1        1893       -16.        24.        0.0       -16.        24.        0.0
  IMPLANTE-2-COPY4-1        1894       -17.        24.        0.0       -17.        24.        0.0
  IMPLANTE-2-COPY4-1        1895       -17.        22.        0.0       -17.        22.        0.0
  IMPLANTE-2-COPY4-1        1896       -16.        22.        0.0       -16.        22.        0.0
  IMPLANTE-2-COPY4-1        1897       -17.        17.        0.0       -17.        17.        0.0
  IMPLANTE-2-COPY4-1        1898       -17.        21.        0.0       -17.        21.        0.0
  IMPLANTE-2-COPY4-1        1899       -16.        21.        0.0       -16.        21.        0.0
  IMPLANTE-2-COPY4-1        1900       -17.        20.        0.0       -17.        20.        0.0
  IMPLANTE-2-COPY4-1        1901       -14.        20.        0.0       -14.        20.        0.0
  IMPLANTE-2-COPY4-1        1902       -15.        21.        0.0       -15.        21.        0.0
  IMPLANTE-2-COPY4-1        1903       -15.        20.        0.0       -15.        20.        0.0
  IMPLANTE-2-COPY4-1        1904       -14.        19.        0.0       -14.        19.        0.0
  IMPLANTE-2-COPY4-1        1905       -15.        14.        0.0       -15.        14.        0.0
  IMPLANTE-2-COPY4-1        1906       -14.        16.        0.0       -14.        16.        0.0
  IMPLANTE-2-COPY4-1        1907       -14.        17.        0.0       -14.        17.        0.0
  IMPLANTE-2-COPY4-1        1908       -15.        17.        0.0       -15.        17.        0.0
  IMPLANTE-2-COPY4-1        1909       -15.        17.        0.0       -15.        17.        0.0
  IMPLANTE-2-COPY4-1        1910       -16.        17.        0.0       -16.        17.        0.0
  IMPLANTE-2-COPY4-1        1911       -16.        18.        0.0       -16.        18.        0.0
  IMPLANTE-2-COPY4-1        1912       -17.        18.        0.0       -17.        18.        0.0
  IMPLANTE-2-COPY4-1        1913         8.        42.        0.0         8.        42.        0.0
  IMPLANTE-2-COPY4-1        1914         8.        41.        0.0         8.        41.        0.0
  IMPLANTE-2-COPY4-1        1915         7.        42.        0.0         7.        42.        0.0
  IMPLANTE-2-COPY4-1        1916        -3.        41.        0.0        -3.        41.        0.0
  IMPLANTE-2-COPY4-1        1917        -3.        41.        0.0        -3.        41.        0.0
  IMPLANTE-2-COPY4-1        1918         4.        34.        0.0         4.        34.        0.0
  IMPLANTE-2-COPY4-1        1919       -11.        32.        0.0       -11.        32.        0.0
  IMPLANTE-2-COPY4-1        1920       -10.        32.        0.0       -10.        32.        0.0
  IMPLANTE-2-COPY4-1        1921       -10.        33.        0.0       -10.        33.        0.0
  IMPLANTE-2-COPY4-1        1922       -11.        33.        0.0       -11.        33.        0.0
  IMPLANTE-2-COPY4-1        1923         2.        41.        0.0         2.        41.        0.0
  IMPLANTE-2-COPY4-1        1924         4.        40.        0.0         4.        40.        0.0
  IMPLANTE-2-COPY4-1        1925         5.        41.        0.0         5.        41.        0.0
  IMPLANTE-2-COPY4-1        1926         4.        35.        0.0         4.        35.        0.0
  IMPLANTE-2-COPY4-1        1927         3.        35.        0.0         3.        35.        0.0
  IMPLANTE-2-COPY4-1        1928         3.        34.        0.0         3.        34.        0.0
  IMPLANTE-2-COPY4-1        1929         8.        38.        0.0         8.        38.        0.0
  IMPLANTE-2-COPY4-1        1930         6.        36.        0.0         6.        36.        0.0
  IMPLANTE-2-COPY4-1        1931         6.        41.        0.0         6.        41.        0.0
  IMPLANTE-2-COPY4-1        1932         3.        39.        0.0         3.        39.        0.0
  IMPLANTE-2-COPY4-1        1933         4.        39.        0.0         4.        39.        0.0
  IMPLANTE-2-COPY4-1        1934         8.        40.        0.0         8.        40.        0.0
  IMPLANTE-2-COPY4-1        1935         9.        40.        0.0         9.        40.        0.0
  IMPLANTE-2-COPY4-1        1936       -14.        32.        0.0       -14.        32.        0.0
  IMPLANTE-2-COPY4-1        1937       -13.        32.        0.0       -13.        32.        0.0
  IMPLANTE-2-COPY4-1        1938        -4.        27.        0.0        -4.        27.        0.0
  IMPLANTE-2-COPY4-1        1939        -4.        26.        0.0        -4.        26.        0.0
  IMPLANTE-2-COPY4-1        1940        -3.        27.        0.0        -3.        27.        0.0
  IMPLANTE-2-COPY4-1        1941         9.        39.        0.0         9.        39.        0.0
  IMPLANTE-2-COPY4-1        1942       -10.        35.        0.0       -10.        35.        0.0
  IMPLANTE-2-COPY4-1        1943        -9.        34.        0.0        -9.        34.        0.0
  IMPLANTE-2-COPY4-1        1944        -7.        24.        0.0        -7.        24.        0.0
  IMPLANTE-2-COPY4-1        1945        -7.        23.        0.0        -7.        23.        0.0
  IMPLANTE-2-COPY4-1        1946       -13.        28.        0.0       -13.        28.        0.0
  IMPLANTE-2-COPY4-1        1947       -14.        27.        0.0       -14.        27.        0.0
  IMPLANTE-2-COPY4-1        1948       -13.        27.        0.0       -13.        27.        0.0
  IMPLANTE-2-COPY4-1        1949        -7.        26.        0.0        -7.        26.        0.0
  IMPLANTE-2-COPY4-1        1950        -7.        25.        0.0        -7.        25.        0.0
  IMPLANTE-2-COPY4-1        1951       -16.        25.        0.0       -16.        25.        0.0
  IMPLANTE-2-COPY4-1        1952       -13.        28.        0.0       -13.        28.        0.0
  IMPLANTE-2-COPY4-1        1953        -8.        23.        0.0        -8.        23.        0.0
  IMPLANTE-2-COPY4-1        1954       -15.        25.        0.0       -15.        25.        0.0
  IMPLANTE-2-COPY4-1        1955       -15.        25.        0.0       -15.        25.        0.0
  IMPLANTE-2-COPY4-1        1956        -9.        30.        0.0        -9.        30.        0.0
  IMPLANTE-2-COPY4-1        1957        -9.        29.        0.0        -9.        29.        0.0
  IMPLANTE-2-COPY4-1        1958        -8.        28.        0.0        -8.        28.        0.0
  IMPLANTE-2-COPY4-1        1959        -8.        29.        0.0        -8.        29.        0.0
  IMPLANTE-2-COPY4-1        1960        -8.        24.        0.0        -8.        24.        0.0
  IMPLANTE-2-COPY4-1        1961        -9.        24.        0.0        -9.        24.        0.0
  IMPLANTE-2-COPY4-1        1962        -9.        23.        0.0        -9.        23.        0.0
  IMPLANTE-2-COPY4-1        1963       -16.        19.        0.0       -16.        19.        0.0
  IMPLANTE-2-COPY4-1        1964       -11.        20.        0.0       -11.        20.        0.0
  IMPLANTE-2-COPY4-1        1965       -11.        19.        0.0       -11.        19.        0.0
  IMPLANTE-2-COPY4-1        1966       -16.        22.        0.0       -16.        22.        0.0
  IMPLANTE-2-COPY4-1        1967       -15.        22.        0.0       -15.        22.        0.0
  IMPLANTE-2-COPY4-1        1968       -16.        23.        0.0       -16.        23.        0.0
  IMPLANTE-2-COPY4-1        1969       -12.        19.        0.0       -12.        19.        0.0
  IMPLANTE-2-COPY4-1        1970       -13.        18.        0.0       -13.        18.        0.0
  IMPLANTE-2-COPY4-1        1971       -14.        18.        0.0       -14.        18.        0.0
  IMPLANTE-2-COPY4-1        1972       -14.        18.        0.0       -14.        18.        0.0
  IMPLANTE-2-COPY4-1        1973       -15.        19.        0.0       -15.        19.        0.0
  IMPLANTE-2-COPY4-1        1974        -2.        34.        0.0        -2.        34.        0.0
  IMPLANTE-2-COPY4-1        1975        -2.        34.        0.0        -2.        34.        0.0
  IMPLANTE-2-COPY4-1        1976        -2.        35.        0.0        -2.        35.        0.0
  IMPLANTE-2-COPY4-1        1977        -3.        35.        0.0        -3.        35.        0.0
  IMPLANTE-2-COPY4-1        1978       -14.        22.        0.0       -14.        22.        0.0
  IMPLANTE-2-COPY4-1        1979       -14.        21.        0.0       -14.        21.        0.0
  IMPLANTE-2-COPY4-1        1980       -13.        22.        0.0       -13.        22.        0.0
  IMPLANTE-2-COPY4-1        1981       -14.        23.        0.0       -14.        23.        0.0
  IMPLANTE-2-COPY4-1        1982        -4.        28.        0.0        -4.        28.        0.0
  IMPLANTE-2-COPY4-1        1983        -3.        28.        0.0        -3.        28.        0.0
  IMPLANTE-2-COPY4-1        1984        -3.        29.        0.0        -3.        29.        0.0
  IMPLANTE-2-COPY4-1        1985        -3.        29.        0.0        -3.        29.        0.0
  IMPLANTE-2-COPY4-1        1986  -583.E-03        30.        0.0  -579.E-03        30.        0.0
  IMPLANTE-2-COPY4-1        1987        -4.        40.        0.0        -4.        40.        0.0
  IMPLANTE-2-COPY4-1        1988        -4.        40.        0.0        -4.        40.        0.0
  IMPLANTE-2-COPY4-1        1989        -3.        39.        0.0        -3.        39.        0.0
  IMPLANTE-2-COPY4-1        1990        -3.        40.        0.0        -3.        40.        0.0
  IMPLANTE-2-COPY4-1        1991         1.        34.        0.0         1.        34.        0.0
  IMPLANTE-2-COPY4-1        1992   212.E-03        34.        0.0   216.E-03        34.        0.0
  IMPLANTE-2-COPY4-1        1993   -40.E-03        33.        0.0   -36.E-03        33.        0.0
  IMPLANTE-2-COPY4-1        1994        -6.        39.        0.0        -6.        39.        0.0
  IMPLANTE-2-COPY4-1        1995        -6.        38.        0.0        -6.        38.        0.0
  IMPLANTE-2-COPY4-1        1996        -5.        38.        0.0        -5.        38.        0.0
  IMPLANTE-2-COPY4-1        1997        -5.        39.        0.0        -5.        39.        0.0
  IMPLANTE-2-COPY4-1        1998       -11.        34.        0.0       -11.        34.        0.0
  IMPLANTE-2-COPY4-1        1999  -459.E-03        31.        0.0  -455.E-03        31.        0.0
  IMPLANTE-2-COPY4-1        2000  -297.E-03        32.        0.0  -293.E-03        32.        0.0
  IMPLANTE-2-COPY4-1        2001        -2.        30.        0.0        -2.        30.        0.0
  IMPLANTE-2-COPY4-1        2002        -1.        31.        0.0        -1.        31.        0.0
  IMPLANTE-2-COPY4-1        2003       -10.        23.        0.0       -10.        23.        0.0
  IMPLANTE-2-COPY4-1        2004       -10.        22.        0.0       -10.        22.        0.0
  IMPLANTE-2-COPY4-1        2005       -15.        23.        0.0       -15.        23.        0.0
  IMPLANTE-2-COPY4-1        2006       -14.        23.        0.0       -14.        23.        0.0
  IMPLANTE-2-COPY4-1        2007       -15.        24.        0.0       -15.        24.        0.0
  IMPLANTE-2-COPY4-1        2008       -15.        23.        0.0       -15.        23.        0.0
  IMPLANTE-2-COPY4-1        2009         7.        39.        0.0         7.        39.        0.0
  IMPLANTE-2-COPY4-1        2010         7.        39.        0.0         7.        39.        0.0
  IMPLANTE-2-COPY4-1        2011         8.        39.        0.0         8.        39.        0.0
  IMPLANTE-2-COPY4-1        2012         6.        41.        0.0         6.        41.        0.0
  IMPLANTE-2-COPY4-1        2013         5.        41.        0.0         5.        41.        0.0
  IMPLANTE-2-COPY4-1        2014        -8.        41.        0.0        -8.        41.        0.0
  IMPLANTE-2-COPY4-1        2015        -8.        42.        0.0        -8.        42.        0.0
  IMPLANTE-2-COPY4-1        2016        -9.        42.        0.0        -9.        42.        0.0
  IMPLANTE-2-COPY4-1        2017        -5.        41.        0.0        -5.        41.        0.0
  IMPLANTE-2-COPY4-1        2018       -10.        43.        0.0       -10.        43.        0.0
  IMPLANTE-2-COPY4-1        2019        -2.        40.        0.0        -2.        40.        0.0
  IMPLANTE-2-COPY4-1        2020        -2.        39.        0.0        -1.        39.        0.0
  IMPLANTE-2-COPY4-1        2021  -643.E-03        40.        0.0  -639.E-03        40.        0.0
  IMPLANTE-2-COPY4-1        2022       -10.        34.        0.0       -10.        34.        0.0
  IMPLANTE-2-COPY4-1        2023         5.        36.        0.0         5.        36.        0.0
  IMPLANTE-2-COPY4-1        2024         4.        36.        0.0         4.        36.        0.0
  IMPLANTE-2-COPY4-1        2025   890.E-03        40.        0.0   894.E-03        40.        0.0
  IMPLANTE-2-COPY4-1        2026         2.        34.        0.0         2.        34.        0.0
  IMPLANTE-2-COPY4-1        2027    18.E-03        39.        0.0    22.E-03        39.        0.0
  IMPLANTE-2-COPY4-1        2028         3.        36.        0.0         3.        36.        0.0
  IMPLANTE-2-COPY4-1        2029         4.        37.        0.0         4.        37.        0.0
  IMPLANTE-2-COPY4-1        2030         3.        37.        0.0         3.        37.        0.0
  IMPLANTE-2-COPY4-1        2031         7.        38.        0.0         7.        38.        0.0
  IMPLANTE-2-COPY4-1        2032         8.        38.        0.0         8.        38.        0.0
  IMPLANTE-2-COPY4-1        2033         5.        39.        0.0         5.        39.        0.0
  IMPLANTE-2-COPY4-1        2034         5.        38.        0.0         5.        38.        0.0
  IMPLANTE-2-COPY4-1        2035         6.        38.        0.0         6.        38.        0.0
  IMPLANTE-2-COPY4-1        2036         6.        39.        0.0         6.        39.        0.0
  IMPLANTE-2-COPY4-1        2037         6.        41.        0.0         6.        41.        0.0
  IMPLANTE-2-COPY4-1        2038       -12.        30.        0.0       -12.        30.        0.0
  IMPLANTE-2-COPY4-1        2039       -11.        30.        0.0       -11.        30.        0.0
  IMPLANTE-2-COPY4-1        2040       -12.        31.        0.0       -12.        31.        0.0
  IMPLANTE-2-COPY4-1        2041       -11.        32.        0.0       -11.        32.        0.0
  IMPLANTE-2-COPY4-1        2042       -11.        32.        0.0       -11.        32.        0.0
  IMPLANTE-2-COPY4-1        2043       -12.        31.        0.0       -12.        31.        0.0
  IMPLANTE-2-COPY4-1        2044       -11.        31.        0.0       -11.        31.        0.0
  IMPLANTE-2-COPY4-1        2045        -7.        27.        0.0        -7.        27.        0.0
  IMPLANTE-2-COPY4-1        2046        -7.        27.        0.0        -7.        27.        0.0
  IMPLANTE-2-COPY4-1        2047        -8.        26.        0.0        -8.        26.        0.0
  IMPLANTE-2-COPY4-1        2048        -9.        26.        0.0        -9.        26.        0.0
  IMPLANTE-2-COPY4-1        2049        -9.        25.        0.0        -9.        25.        0.0
  IMPLANTE-2-COPY4-1        2050        -8.        25.        0.0        -8.        25.        0.0
  IMPLANTE-2-COPY4-1        2051       -16.        24.        0.0       -16.        24.        0.0
  IMPLANTE-2-COPY4-1        2052       -15.        24.        0.0       -15.        24.        0.0
  IMPLANTE-2-COPY4-1        2053       -13.        26.        0.0       -13.        26.        0.0
  IMPLANTE-2-COPY4-1        2054       -13.        26.        0.0       -13.        26.        0.0
  IMPLANTE-2-COPY4-1        2055       -13.        25.        0.0       -13.        25.        0.0
  IMPLANTE-2-COPY4-1        2056       -13.        25.        0.0       -13.        25.        0.0
  IMPLANTE-2-COPY4-1        2057        -8.        27.        0.0        -8.        27.        0.0
  IMPLANTE-2-COPY4-1        2058       -11.        22.        0.0       -11.        22.        0.0
  IMPLANTE-2-COPY4-1        2059       -11.        21.        0.0       -11.        21.        0.0
  IMPLANTE-2-COPY4-1        2060       -15.        21.        0.0       -15.        21.        0.0
  IMPLANTE-2-COPY4-1        2061       -15.        21.        0.0       -15.        21.        0.0
  IMPLANTE-2-COPY4-1        2062       -13.        21.        0.0       -13.        21.        0.0
  IMPLANTE-2-COPY4-1        2063       -13.        20.        0.0       -13.        20.        0.0
  IMPLANTE-2-COPY4-1        2064       -12.        20.        0.0       -12.        20.        0.0
  IMPLANTE-2-COPY4-1        2065       -13.        19.        0.0       -13.        19.        0.0
  IMPLANTE-2-COPY4-1        2066        -8.        37.        0.0        -8.        37.        0.0
  IMPLANTE-2-COPY4-1        2067        -8.        38.        0.0        -8.        38.        0.0
  IMPLANTE-2-COPY4-1        2068        -7.        39.        0.0        -7.        39.        0.0
  IMPLANTE-2-COPY4-1        2069        -5.        40.        0.0        -5.        40.        0.0
  IMPLANTE-2-COPY4-1        2070        -4.        39.        0.0        -4.        39.        0.0
  IMPLANTE-2-COPY4-1        2071        -5.        28.        0.0        -5.        28.        0.0
  IMPLANTE-2-COPY4-1        2072        -2.        30.        0.0        -2.        30.        0.0
  IMPLANTE-2-COPY4-1        2073        -5.        28.        0.0        -5.        28.        0.0
  IMPLANTE-2-COPY4-1        2074         1.        37.        0.0         1.        37.        0.0
  IMPLANTE-2-COPY4-1        2075         1.        36.        0.0         1.        36.        0.0
  IMPLANTE-2-COPY4-1        2076         2.        36.        0.0         2.        36.        0.0
  IMPLANTE-2-COPY4-1        2077         2.        37.        0.0         2.        37.        0.0
  IMPLANTE-2-COPY4-1        2078       -12.        28.        0.0       -12.        28.        0.0
  IMPLANTE-2-COPY4-1        2079       -12.        27.        0.0       -12.        27.        0.0
  IMPLANTE-2-COPY4-1        2080       -11.        27.        0.0       -11.        27.        0.0
  IMPLANTE-2-COPY4-1        2081       -11.        28.        0.0       -11.        28.        0.0
  IMPLANTE-2-COPY4-1        2082         6.        37.        0.0         6.        37.        0.0
  IMPLANTE-2-COPY4-1        2083         5.        37.        0.0         5.        37.        0.0
  IMPLANTE-2-COPY4-1        2084         2.        37.        0.0         2.        37.        0.0
  IMPLANTE-2-COPY4-1        2085         3.        37.        0.0         3.        37.        0.0
  IMPLANTE-2-COPY4-1        2086        -1.        34.        0.0        -1.        34.        0.0
  IMPLANTE-2-COPY4-1        2087        -1.        33.        0.0        -1.        33.        0.0
  IMPLANTE-2-COPY4-1        2088         5.        40.        0.0         5.        40.        0.0
  IMPLANTE-2-COPY4-1        2089        -3.        30.        0.0        -3.        30.        0.0
  IMPLANTE-2-COPY4-1        2090        -2.        31.        0.0        -2.        31.        0.0
  IMPLANTE-2-COPY4-1        2091        -3.        31.        0.0        -3.        31.        0.0
  IMPLANTE-2-COPY4-1        2092       -14.        25.        0.0       -14.        25.        0.0
  IMPLANTE-2-COPY4-1        2093       -14.        25.        0.0       -14.        25.        0.0
  IMPLANTE-2-COPY4-1        2094       -14.        26.        0.0       -14.        26.        0.0
  IMPLANTE-2-COPY4-1        2095       -12.        21.        0.0       -12.        21.        0.0
  IMPLANTE-2-COPY4-1        2096        -2.        33.        0.0        -2.        33.        0.0
  IMPLANTE-2-COPY4-1        2097         6.        40.        0.0         6.        40.        0.0
  IMPLANTE-2-COPY4-1        2098       -11.        25.        0.0       -11.        25.        0.0
  IMPLANTE-2-COPY4-1        2099       -10.        25.        0.0       -10.        25.        0.0
  IMPLANTE-2-COPY4-1        2100       -10.        27.        0.0       -10.        27.        0.0
  IMPLANTE-2-COPY4-1        2101       -12.        22.        0.0       -12.        22.        0.0
  IMPLANTE-2-COPY4-1        2102       -12.        22.        0.0       -12.        22.        0.0
  IMPLANTE-2-COPY4-1        2103       -14.        24.        0.0       -14.        24.        0.0
  IMPLANTE-2-COPY4-1        2104       -14.        24.        0.0       -14.        24.        0.0
  IMPLANTE-2-COPY4-1        2105       -13.        24.        0.0       -13.        24.        0.0
  IMPLANTE-2-COPY4-1        2106       -14.        24.        0.0       -14.        24.        0.0
  IMPLANTE-2-COPY4-1        2107        -8.        34.        0.0        -8.        34.        0.0
  IMPLANTE-2-COPY4-1        2108        -7.        34.        0.0        -7.        34.        0.0
  IMPLANTE-2-COPY4-1        2109        -7.        35.        0.0        -7.        35.        0.0
  IMPLANTE-2-COPY4-1        2110         2.        35.        0.0         2.        35.        0.0
  IMPLANTE-2-COPY4-1        2111         1.        35.        0.0         1.        35.        0.0
  IMPLANTE-2-COPY4-1        2112        -9.        34.        0.0        -9.        34.        0.0
  IMPLANTE-2-COPY4-1        2113        -8.        33.        0.0        -8.        33.        0.0
  IMPLANTE-2-COPY4-1        2114         4.        38.        0.0         4.        38.        0.0
  IMPLANTE-2-COPY4-1        2115       -13.        29.        0.0       -13.        29.        0.0
  IMPLANTE-2-COPY4-1        2116       -12.        29.        0.0       -12.        29.        0.0
  IMPLANTE-2-COPY4-1        2117        -8.        32.        0.0        -8.        32.        0.0
  IMPLANTE-2-COPY4-1        2118        -9.        33.        0.0        -9.        33.        0.0
  IMPLANTE-2-COPY4-1        2119        -9.        32.        0.0        -9.        32.        0.0
  IMPLANTE-2-COPY4-1        2120        -9.        31.        0.0        -9.        31.        0.0
  IMPLANTE-2-COPY4-1        2121       -10.        32.        0.0       -10.        32.        0.0
  IMPLANTE-2-COPY4-1        2122       -10.        31.        0.0       -10.        31.        0.0
  IMPLANTE-2-COPY4-1        2123       -10.        31.        0.0       -10.        31.        0.0
  IMPLANTE-2-COPY4-1        2124       -10.        24.        0.0       -10.        24.        0.0
  IMPLANTE-2-COPY4-1        2125       -11.        24.        0.0       -11.        24.        0.0
  IMPLANTE-2-COPY4-1        2126       -11.        23.        0.0       -11.        23.        0.0
  IMPLANTE-2-COPY4-1        2127       -11.        23.        0.0       -11.        23.        0.0
  IMPLANTE-2-COPY4-1        2128        -4.        41.        0.0        -4.        41.        0.0
  IMPLANTE-2-COPY4-1        2129  -102.E-03        35.        0.0   -98.E-03        35.        0.0
  IMPLANTE-2-COPY4-1        2130   611.E-03        36.        0.0   615.E-03        36.        0.0
  IMPLANTE-2-COPY4-1        2131   328.E-03        37.        0.0   332.E-03        37.        0.0
  IMPLANTE-2-COPY4-1        2132  -385.E-03        36.        0.0  -381.E-03        36.        0.0
  IMPLANTE-2-COPY4-1        2133        -5.        40.        0.0        -5.        40.        0.0
  IMPLANTE-2-COPY4-1        2134        -6.        39.        0.0        -6.        39.        0.0
  IMPLANTE-2-COPY4-1        2135        -4.        29.        0.0        -4.        29.        0.0
  IMPLANTE-2-COPY4-1        2136        -5.        29.        0.0        -5.        29.        0.0
  IMPLANTE-2-COPY4-1        2137   551.E-03        35.        0.0   555.E-03        35.        0.0
  IMPLANTE-2-COPY4-1        2138       -10.        29.        0.0       -10.        29.        0.0
  IMPLANTE-2-COPY4-1        2139       -10.        28.        0.0       -10.        28.        0.0
  IMPLANTE-2-COPY4-1        2140       -10.        28.        0.0       -10.        28.        0.0
  IMPLANTE-2-COPY4-1        2141        -4.        30.        0.0        -4.        30.        0.0
  IMPLANTE-2-COPY4-1        2142        -7.        30.        0.0        -7.        30.        0.0
  IMPLANTE-2-COPY4-1        2143        -6.        30.        0.0        -6.        30.        0.0
  IMPLANTE-2-COPY4-1        2144        -6.        31.        0.0        -6.        31.        0.0
  IMPLANTE-2-COPY4-1        2145        -7.        31.        0.0        -7.        31.        0.0
  IMPLANTE-2-COPY4-1        2146        -4.        36.        0.0        -4.        36.        0.0
  IMPLANTE-2-COPY4-1        2147        -4.        37.        0.0        -4.        37.        0.0
  IMPLANTE-2-COPY4-1        2148        -5.        37.        0.0        -5.        37.        0.0
  IMPLANTE-2-COPY4-1        2149        -4.        36.        0.0        -4.        36.        0.0
  IMPLANTE-2-COPY4-1        2150  -441.E-03        35.        0.0  -437.E-03        35.        0.0
  IMPLANTE-2-COPY4-1        2151        -1.        35.        0.0        -1.        35.        0.0
  IMPLANTE-2-COPY4-1        2152        -3.        38.        0.0        -3.        38.        0.0
  IMPLANTE-2-COPY4-1        2153        -2.        38.        0.0        -2.        38.        0.0
  IMPLANTE-2-COPY4-1        2154         3.        38.        0.0         3.        38.        0.0
  IMPLANTE-2-COPY4-1        2155        -5.        30.        0.0        -5.        30.        0.0
  IMPLANTE-2-COPY4-1        2156        -4.        33.        0.0        -4.        33.        0.0
  IMPLANTE-2-COPY4-1        2157        -3.        32.        0.0        -3.        32.        0.0
  IMPLANTE-2-COPY4-1        2158        -4.        31.        0.0        -4.        31.        0.0
  IMPLANTE-2-COPY4-1        2159        -5.        31.        0.0        -5.        31.        0.0
  IMPLANTE-2-COPY4-1        2160        -5.        31.        0.0        -5.        31.        0.0
  IMPLANTE-2-COPY4-1        2161       -11.        24.        0.0       -11.        24.        0.0
  IMPLANTE-2-COPY4-1        2162       -12.        25.        0.0       -12.        25.        0.0
  IMPLANTE-2-COPY4-1        2163       -12.        23.        0.0       -12.        23.        0.0
  IMPLANTE-2-COPY4-1        2164       -13.        23.        0.0       -13.        23.        0.0
  IMPLANTE-2-COPY4-1        2165        -7.        38.        0.0        -7.        38.        0.0
  IMPLANTE-2-COPY4-1        2166        -7.        36.        0.0        -7.        36.        0.0
  IMPLANTE-2-COPY4-1        2167        -7.        37.        0.0        -7.        37.        0.0
  IMPLANTE-2-COPY4-1        2168        -8.        30.        0.0        -8.        30.        0.0
  IMPLANTE-2-COPY4-1        2169        -6.        37.        0.0        -6.        37.        0.0
  IMPLANTE-2-COPY4-1        2170  -542.E-03        38.        0.0  -538.E-03        38.        0.0
  IMPLANTE-2-COPY4-1        2171   489.E-03        38.        0.0   493.E-03        38.        0.0
  IMPLANTE-2-COPY4-1        2172        -7.        31.        0.0        -7.        31.        0.0
  IMPLANTE-2-COPY4-1        2173        -8.        32.        0.0        -8.        32.        0.0
  IMPLANTE-2-COPY4-1        2174        -8.        31.        0.0        -8.        31.        0.0
  IMPLANTE-2-COPY4-1        2175        -3.        37.        0.0        -3.        37.        0.0
  IMPLANTE-2-COPY4-1        2176        -3.        36.        0.0        -3.        36.        0.0
  IMPLANTE-2-COPY4-1        2177        -3.        36.        0.0        -3.        36.        0.0
  IMPLANTE-2-COPY4-1        2178         2.        38.        0.0         2.        38.        0.0
  IMPLANTE-2-COPY4-1        2179  -971.E-03        37.        0.0  -967.E-03        37.        0.0
  IMPLANTE-2-COPY4-1        2180        -2.        36.        0.0        -2.        36.        0.0
  IMPLANTE-2-COPY4-1        2181        -4.        32.        0.0        -4.        32.        0.0
  IMPLANTE-2-COPY4-1        2182       -11.        29.        0.0       -11.        29.        0.0
  IMPLANTE-2-COPY4-1        2183        -6.        31.        0.0        -6.        31.        0.0
  IMPLANTE-2-COPY4-1        2184        -5.        32.        0.0        -5.        32.        0.0
  IMPLANTE-2-COPY4-1        2185        -6.        32.        0.0        -6.        32.        0.0
  IMPLANTE-2-COPY4-1        2186        -6.        32.        0.0        -6.        32.        0.0
  IMPLANTE-2-COPY4-1        2187        -4.        34.        0.0        -4.        34.        0.0
  IMPLANTE-2-COPY4-1        2188        -4.        33.        0.0        -4.        33.        0.0
  IMPLANTE-2-COPY4-1        2189        -4.        34.        0.0        -4.        34.        0.0
  IMPLANTE-2-COPY4-1        2190       -13.        24.        0.0       -13.        24.        0.0
  IMPLANTE-2-COPY4-1        2191       -14.        23.        0.0       -14.        23.        0.0
  IMPLANTE-2-COPY4-1        2192       -12.        24.        0.0       -12.        24.        0.0
  IMPLANTE-2-COPY4-1        2193        -6.        33.        0.0        -6.        33.        0.0
  IMPLANTE-2-COPY4-1        2194        -8.        33.        0.0        -8.        33.        0.0
  IMPLANTE-2-COPY4-1        2195        -7.        32.        0.0        -7.        32.        0.0
  IMPLANTE-2-COPY4-1        2196        -6.        34.        0.0        -6.        34.        0.0
  IMPLANTE-2-COPY4-1        2197        -5.        33.        0.0        -5.        33.        0.0
  IMPLANTE-2-COPY4-1        2198        -2.        37.        0.0        -2.        37.        0.0
  IMPLANTE-2-COPY4-1        2199        -4.        38.        0.0        -4.        38.        0.0
  IMPLANTE-2-COPY4-1        2200        -3.        38.        0.0        -3.        38.        0.0
  IMPLANTE-2-COPY4-1        2201        -5.        37.        0.0        -5.        37.        0.0
  IMPLANTE-2-COPY4-1        2202        -6.        36.        0.0        -6.        36.        0.0
  IMPLANTE-2-COPY4-1        2203       -10.        30.        0.0       -10.        30.        0.0
  IMPLANTE-2-COPY4-1        2204       -11.        30.        0.0       -11.        30.        0.0
  IMPLANTE-2-COPY4-1        2205       -10.        30.        0.0       -10.        30.        0.0
  IMPLANTE-2-COPY4-1        2206        -2.        37.        0.0        -2.        37.        0.0
  IMPLANTE-2-COPY4-1        2207        -5.        34.        0.0        -5.        34.        0.0
  IMPLANTE-2-COPY4-1        2208        -5.        34.        0.0        -5.        34.        0.0
  IMPLANTE-2-COPY4-1        2209        -5.        35.        0.0        -5.        35.        0.0
  IMPLANTE-2-COPY4-1        2210        -5.        33.        0.0        -5.        33.        0.0
  IMPLANTE-2-COPY4-1        2211        -4.        35.        0.0        -4.        35.        0.0
  IMPLANTE-2-COPY4-1        2212       -12.        26.        0.0       -12.        26.        0.0
  IMPLANTE-2-COPY4-1        2213        -9.        31.        0.0        -9.        31.        0.0
  IMPLANTE-2-COPY4-1        2214       -11.        30.        0.0       -11.        30.        0.0
  IMPLANTE-2-COPY4-1        2215        -5.        36.        0.0        -5.        36.        0.0
  IMPLANTE-2-COPY4-1        2216        -6.        35.        0.0        -6.        35.        0.0
  IMPLANTE-2-COPY4-1        2217       -15.        15.        0.0       -15.        15.        0.0
  IMPLANTE-2-COPY4-1        2218        -9.        30.        0.0        -9.        30.        0.0
  IMPLANTE-2-COPY4-1        2219       -13.        25.        0.0       -13.        25.        0.0
  IMPLANTE-2-COPY4-1        2220       -12.        25.        0.0       -12.        25.        0.0
  OSSO-CUT-1           1        15.        39.        0.0        15.        39.        0.0
  OSSO-CUT-1           2        18.        42.        0.0        18.        42.        0.0
  OSSO-CUT-1           3        12.        36.        0.0        12.        36.        0.0
  OSSO-CUT-1           4        15.        34.        0.0        15.        34.        0.0
  OSSO-CUT-1           5        13.        32.        0.0        13.        32.        0.0
  OSSO-CUT-1           6        12.        34.        0.0        12.        34.        0.0
  OSSO-CUT-1           7         9.        32.        0.0         9.        32.        0.0
  OSSO-CUT-1           8         7.        30.        0.0         7.        30.        0.0
  OSSO-CUT-1           9         9.        28.        0.0         9.        28.        0.0
  OSSO-CUT-1          10        12.        25.        0.0        12.        25.        0.0
  OSSO-CUT-1          11        15.        22.        0.0        15.        22.        0.0
  OSSO-CUT-1          12        19.        18.        0.0        19.        18.        0.0
  OSSO-CUT-1          13        21.        16.        0.0        21.        16.        0.0
  OSSO-CUT-1          14        24.        13.        0.0        24.        13.        0.0
  OSSO-CUT-1          15        27.         9.        0.0        27.         9.        0.0
  OSSO-CUT-1          16        24.         6.        0.0        24.         6.        0.0
  OSSO-CUT-1          17        21.         4.        0.0        21.         4.        0.0
  OSSO-CUT-1          18        18.   807.E-03        0.0        18.   806.E-03        0.0
  OSSO-CUT-1          19        15.        -2.        0.0        15.        -2.        0.0
  OSSO-CUT-1          20        12.   988.E-03        0.0        12.   987.E-03        0.0
  OSSO-CUT-1          21         8.         4.        0.0         8.         4.        0.0
  OSSO-CUT-1          22         5.         8.        0.0         5.         8.        0.0
  OSSO-CUT-1          23         3.        10.        0.0         3.        10.        0.0
  OSSO-CUT-1          24   -19.E-03        13.        0.0   -16.E-03        13.        0.0
  OSSO-CUT-1          25        -3.        17.        0.0        -3.        17.        0.0
  OSSO-CUT-1          26        -5.        18.        0.0        -5.        18.        0.0
  OSSO-CUT-1          27        -7.        16.        0.0        -7.        16.        0.0
  OSSO-CUT-1          28        -9.        14.        0.0        -9.        14.        0.0
  OSSO-CUT-1          29        -7.        13.        0.0        -7.        13.        0.0
  OSSO-CUT-1          30        -9.        11.        0.0        -9.        11.        0.0
  OSSO-CUT-1          31       -12.        14.        0.0       -12.        14.        0.0
  OSSO-CUT-1          32       -14.        11.        0.0       -14.        11.        0.0
  OSSO-CUT-1          33       -17.         8.        0.0       -17.         8.        0.0
  OSSO-CUT-1          34       -16.         6.        0.0       -16.         6.        0.0
  OSSO-CUT-1          35       -14.         4.        0.0       -14.         4.        0.0
  OSSO-CUT-1          36       -12.         3.        0.0       -12.         3.        0.0
  OSSO-CUT-1          37       -10.         2.        0.0       -10.         2.        0.0
  OSSO-CUT-1          38        -8.  -841.E-03        0.0        -8.  -841.E-03        0.0
  OSSO-CUT-1          39        -6.        -4.        0.0        -6.        -4.        0.0
  OSSO-CUT-1          40        -5.        -8.        0.0        -5.        -8.        0.0
  OSSO-CUT-1          41        -5.       -11.        0.0        -5.       -11.        0.0
  OSSO-CUT-1          42        -4.       -14.        0.0        -4.       -14.        0.0
  OSSO-CUT-1          43        -4.       -19.        0.0        -4.       -19.        0.0
  OSSO-CUT-1          44        -4.       -22.        0.0        -4.       -22.        0.0
  OSSO-CUT-1          45        -4.       -25.        0.0        -4.       -25.        0.0
  OSSO-CUT-1          46        -4.       -29.        0.0        -4.       -29.        0.0
  OSSO-CUT-1          47        -4.       -32.        0.0        -4.       -32.        0.0
  OSSO-CUT-1          48        -4.       -35.        0.0        -4.       -35.        0.0
  OSSO-CUT-1          49        -4.       -40.        0.0        -4.       -40.        0.0
  OSSO-CUT-1          50        -4.       -42.        0.0        -4.       -42.        0.0
  OSSO-CUT-1          51  -833.E-03       -42.        0.0  -833.E-03       -42.        0.0
  OSSO-CUT-1          52         4.       -42.        0.0         4.       -42.        0.0
  OSSO-CUT-1          53         6.       -42.        0.0         6.       -42.        0.0
  OSSO-CUT-1          54         9.       -42.        0.0         9.       -42.        0.0
  OSSO-CUT-1          55        12.       -42.        0.0        12.       -42.        0.0
  OSSO-CUT-1          56        17.       -42.        0.0        17.       -42.        0.0
  OSSO-CUT-1          57        20.       -42.        0.0        20.       -42.        0.0
  OSSO-CUT-1          58        22.       -42.        0.0        22.       -42.        0.0
  OSSO-CUT-1          59        23.       -38.        0.0        23.       -38.        0.0
  OSSO-CUT-1          60        23.       -35.        0.0        23.       -35.        0.0
  OSSO-CUT-1          61        24.       -31.        0.0        24.       -31.        0.0
  OSSO-CUT-1          62        24.       -28.        0.0        24.       -28.        0.0
  OSSO-CUT-1          63        24.       -23.        0.0        24.       -23.        0.0
  OSSO-CUT-1          64        25.       -20.        0.0        25.       -20.        0.0
  OSSO-CUT-1          65        25.       -16.        0.0        25.       -16.        0.0
  OSSO-CUT-1          66        26.       -13.        0.0        26.       -13.        0.0
  OSSO-CUT-1          67        26.       -10.        0.0        26.       -10.        0.0
  OSSO-CUT-1          68        27.        -5.        0.0        27.        -5.        0.0
  OSSO-CUT-1          69        27.        -3.        0.0        27.        -3.        0.0
  OSSO-CUT-1          70        28.   435.E-03        0.0        28.   434.E-03        0.0
  OSSO-CUT-1          71        28.         3.        0.0        28.         3.        0.0
  OSSO-CUT-1          72        29.         6.        0.0        29.         6.        0.0
  OSSO-CUT-1          73        29.         9.        0.0        29.         9.        0.0
  OSSO-CUT-1          74        30.        12.        0.0        30.        12.        0.0
  OSSO-CUT-1          75        30.        15.        0.0        30.        15.        0.0
  OSSO-CUT-1          76        31.        19.        0.0        31.        19.        0.0
  OSSO-CUT-1          77        32.        22.        0.0        32.        22.        0.0
  OSSO-CUT-1          78        33.        27.        0.0        33.        27.        0.0
  OSSO-CUT-1          79        33.        31.        0.0        33.        31.        0.0
  OSSO-CUT-1          80        32.        34.        0.0        32.        34.        0.0
  OSSO-CUT-1          81        31.        35.        0.0        31.        35.        0.0
  OSSO-CUT-1          82        29.        38.        0.0        29.        38.        0.0
  OSSO-CUT-1          83        26.        39.        0.0        26.        39.        0.0
  OSSO-CUT-1          84        23.        40.        0.0        23.        40.        0.0
  OSSO-CUT-1          85        21.        41.        0.0        21.        41.        0.0
  OSSO-CUT-1          86        30.        27.        0.0        30.        27.        0.0
  OSSO-CUT-1          87        19.        39.        0.0        19.        39.        0.0
  OSSO-CUT-1          88        21.        39.        0.0        21.        39.        0.0
  OSSO-CUT-1          89        15.        35.        0.0        15.        35.        0.0
  OSSO-CUT-1          90        18.        36.        0.0        18.        36.        0.0
  OSSO-CUT-1          91        21.        35.        0.0        21.        35.        0.0
  OSSO-CUT-1          92        24.        36.        0.0        24.        36.        0.0
  OSSO-CUT-1          93        28.        36.        0.0        28.        36.        0.0
  OSSO-CUT-1          94        18.        32.        0.0        18.        32.        0.0
  OSSO-CUT-1          95        21.        33.        0.0        21.        33.        0.0
  OSSO-CUT-1          96        24.        32.        0.0        24.        32.        0.0
  OSSO-CUT-1          97        27.        33.        0.0        27.        33.        0.0
  OSSO-CUT-1          98        30.        32.        0.0        30.        32.        0.0
  OSSO-CUT-1          99        11.        30.        0.0        11.        30.        0.0
  OSSO-CUT-1         100        18.        30.        0.0        18.        30.        0.0
  OSSO-CUT-1         101        21.        29.        0.0        21.        29.        0.0
  OSSO-CUT-1         102        25.        30.        0.0        25.        30.        0.0
  OSSO-CUT-1         103        27.        30.        0.0        27.        30.        0.0
  OSSO-CUT-1         104        30.        29.        0.0        30.        29.        0.0
  OSSO-CUT-1         105        14.        27.        0.0        14.        27.        0.0
  OSSO-CUT-1         106        18.        27.        0.0        18.        27.        0.0
  OSSO-CUT-1         107        21.        27.        0.0        21.        27.        0.0
  OSSO-CUT-1         108        24.        27.        0.0        24.        27.        0.0
  OSSO-CUT-1         109        27.        28.        0.0        27.        28.        0.0
  OSSO-CUT-1         110        17.        24.        0.0        17.        24.        0.0
  OSSO-CUT-1         111        20.        24.        0.0        20.        24.        0.0
  OSSO-CUT-1         112        24.        24.        0.0        24.        24.        0.0
  OSSO-CUT-1         113        27.        24.        0.0        27.        24.        0.0
  OSSO-CUT-1         114        31.        24.        0.0        31.        24.        0.0
  OSSO-CUT-1         115        17.        21.        0.0        17.        21.        0.0
  OSSO-CUT-1         116        21.        20.        0.0        21.        20.        0.0
  OSSO-CUT-1         117        24.        21.        0.0        24.        21.        0.0
  OSSO-CUT-1         118        27.        20.        0.0        27.        20.        0.0
  OSSO-CUT-1         119        30.        21.        0.0        30.        21.        0.0
  OSSO-CUT-1         120        21.        18.        0.0        21.        18.        0.0
  OSSO-CUT-1         121        24.        17.        0.0        24.        17.        0.0
  OSSO-CUT-1         122        27.        17.        0.0        27.        17.        0.0
  OSSO-CUT-1         123        24.        15.        0.0        24.        15.        0.0
  OSSO-CUT-1         124        28.        15.        0.0        28.        15.        0.0
  OSSO-CUT-1         125        27.        11.        0.0        27.        11.        0.0
  OSSO-CUT-1         126        24.         5.        0.0        24.         5.        0.0
  OSSO-CUT-1         127        27.         5.        0.0        27.         5.        0.0
  OSSO-CUT-1         128        21.         2.        0.0        21.         2.        0.0
  OSSO-CUT-1         129        24.         3.        0.0        24.         3.        0.0
  OSSO-CUT-1         130        18.        -1.        0.0        18.        -1.        0.0
  OSSO-CUT-1         131        21.        -2.        0.0        21.        -2.        0.0
  OSSO-CUT-1         132        23.        -2.        0.0        23.        -2.        0.0
  OSSO-CUT-1         133        -4.        -4.        0.0        -4.        -4.        0.0
  OSSO-CUT-1         134  -971.E-03        -5.        0.0  -968.E-03        -5.        0.0
  OSSO-CUT-1         135         2.        -5.        0.0         2.        -5.        0.0
  OSSO-CUT-1         136         5.        -5.        0.0         5.        -5.        0.0
  OSSO-CUT-1         137         7.        -6.        0.0         7.        -6.        0.0
  OSSO-CUT-1         138        11.        -6.        0.0        11.        -6.        0.0
  OSSO-CUT-1         139        15.        -5.        0.0        15.        -5.        0.0
  OSSO-CUT-1         140        19.        -5.        0.0        19.        -5.        0.0
  OSSO-CUT-1         141        21.        -6.        0.0        21.        -6.        0.0
  OSSO-CUT-1         142        24.        -5.        0.0        24.        -5.        0.0
  OSSO-CUT-1         143        10.        -2.        0.0        10.        -2.        0.0
  OSSO-CUT-1         144         8.        -2.        0.0         8.        -2.        0.0
  OSSO-CUT-1         145         4.        -1.        0.0         4.        -1.        0.0
  OSSO-CUT-1         146         1.        -1.        0.0         1.        -1.        0.0
  OSSO-CUT-1         147        -1.  -467.E-03        0.0        -1.  -467.E-03        0.0
  OSSO-CUT-1         148        -4.  -903.E-03        0.0        -4.  -903.E-03        0.0
  OSSO-CUT-1         149         7.         1.        0.0         7.         1.        0.0
  OSSO-CUT-1         150         5.         2.        0.0         5.         2.        0.0
  OSSO-CUT-1         151         2.         2.        0.0         2.         2.        0.0
  OSSO-CUT-1         152  -931.E-03         3.        0.0  -928.E-03         3.        0.0
  OSSO-CUT-1         153        -4.         2.        0.0        -4.         2.        0.0
  OSSO-CUT-1         154        -8.         2.        0.0        -8.         2.        0.0
  OSSO-CUT-1         155         5.         5.        0.0         5.         5.        0.0
  OSSO-CUT-1         156         2.         6.        0.0         2.         6.        0.0
  OSSO-CUT-1         157        -3.         5.        0.0        -3.         5.        0.0
  OSSO-CUT-1         158        -4.         3.        0.0        -4.         3.        0.0
  OSSO-CUT-1         159        -8.         4.        0.0        -8.         4.        0.0
  OSSO-CUT-1         160       -11.         5.        0.0       -11.         5.        0.0
  OSSO-CUT-1         161         2.         8.        0.0         2.         8.        0.0
  OSSO-CUT-1         162        -2.         8.        0.0        -2.         8.        0.0
  OSSO-CUT-1         163        -5.         8.        0.0        -5.         8.        0.0
  OSSO-CUT-1         164        -8.         8.        0.0        -8.         8.        0.0
  OSSO-CUT-1         165       -11.         8.        0.0       -11.         8.        0.0
  OSSO-CUT-1         166        -2.        11.        0.0        -2.        11.        0.0
  OSSO-CUT-1         167       -12.        11.        0.0       -12.        11.        0.0
  OSSO-CUT-1         168        -5.        14.        0.0        -5.        14.        0.0
  OSSO-CUT-1         169  -967.E-03        -8.        0.0  -965.E-03        -8.        0.0
  OSSO-CUT-1         170         2.        -8.        0.0         2.        -8.        0.0
  OSSO-CUT-1         171         4.        -7.        0.0         4.        -7.        0.0
  OSSO-CUT-1         172         7.        -8.        0.0         7.        -8.        0.0
  OSSO-CUT-1         173        11.        -8.        0.0        11.        -8.        0.0
  OSSO-CUT-1         174        15.        -8.        0.0        15.        -8.        0.0
  OSSO-CUT-1         175        18.        -8.        0.0        18.        -8.        0.0
  OSSO-CUT-1         176        21.        -8.        0.0        21.        -8.        0.0
  OSSO-CUT-1         177        24.        -8.        0.0        24.        -8.        0.0
  OSSO-CUT-1         178        24.       -11.        0.0        24.       -11.        0.0
  OSSO-CUT-1         179        21.       -10.        0.0        21.       -10.        0.0
  OSSO-CUT-1         180        18.       -11.        0.0        18.       -11.        0.0
  OSSO-CUT-1         181        14.       -11.        0.0        14.       -11.        0.0
  OSSO-CUT-1         182        11.       -12.        0.0        11.       -12.        0.0
  OSSO-CUT-1         183         8.       -11.        0.0         8.       -11.        0.0
  OSSO-CUT-1         184         5.       -11.        0.0         5.       -11.        0.0
  OSSO-CUT-1         185         2.       -11.        0.0         2.       -11.        0.0
  OSSO-CUT-1         186        -2.       -11.        0.0        -2.       -11.        0.0
  OSSO-CUT-1         187        -1.       -14.        0.0        -1.       -14.        0.0
  OSSO-CUT-1         188         4.       -14.        0.0         4.       -14.        0.0
  OSSO-CUT-1         189         6.       -15.        0.0         6.       -15.        0.0
  OSSO-CUT-1         190         7.       -14.        0.0         7.       -14.        0.0
  OSSO-CUT-1         191        11.       -14.        0.0        11.       -14.        0.0
  OSSO-CUT-1         192        15.       -14.        0.0        15.       -14.        0.0
  OSSO-CUT-1         193        18.       -14.        0.0        18.       -14.        0.0
  OSSO-CUT-1         194        20.       -14.        0.0        20.       -14.        0.0
  OSSO-CUT-1         195        24.       -14.        0.0        24.       -14.        0.0
  OSSO-CUT-1         196        -1.       -17.        0.0        -1.       -17.        0.0
  OSSO-CUT-1         197         2.       -16.        0.0         2.       -16.        0.0
  OSSO-CUT-1         198         5.       -17.        0.0         5.       -17.        0.0
  OSSO-CUT-1         199         8.       -17.        0.0         8.       -17.        0.0
  OSSO-CUT-1         200        11.       -18.        0.0        11.       -18.        0.0
  OSSO-CUT-1         201        14.       -17.        0.0        14.       -17.        0.0
  OSSO-CUT-1         202        18.       -18.        0.0        18.       -18.        0.0
  OSSO-CUT-1         203        20.       -17.        0.0        20.       -17.        0.0
  OSSO-CUT-1         204        23.       -17.        0.0        23.       -17.        0.0
  OSSO-CUT-1         205        -1.       -20.        0.0        -1.       -20.        0.0
  OSSO-CUT-1         206         2.       -20.        0.0         2.       -20.        0.0
  OSSO-CUT-1         207         5.       -21.        0.0         5.       -21.        0.0
  OSSO-CUT-1         208         8.       -20.        0.0         8.       -21.        0.0
  OSSO-CUT-1         209        14.       -21.        0.0        14.       -21.        0.0
  OSSO-CUT-1         210        18.       -20.        0.0        18.       -20.        0.0
  OSSO-CUT-1         211        20.       -20.        0.0        20.       -20.        0.0
  OSSO-CUT-1         212  -882.E-03       -23.        0.0  -881.E-03       -23.        0.0
  OSSO-CUT-1         213         1.       -24.        0.0         1.       -24.        0.0
  OSSO-CUT-1         214         5.       -23.        0.0         5.       -23.        0.0
  OSSO-CUT-1         215         8.       -23.        0.0         8.       -23.        0.0
  OSSO-CUT-1         216        11.       -22.        0.0        11.       -22.        0.0
  OSSO-CUT-1         217        17.       -24.        0.0        17.       -24.        0.0
  OSSO-CUT-1         218        20.       -23.        0.0        20.       -23.        0.0
  OSSO-CUT-1         219  -808.E-03       -27.        0.0  -807.E-03       -27.        0.0
  OSSO-CUT-1         220         2.       -26.        0.0         2.       -26.        0.0
  OSSO-CUT-1         221         4.       -27.        0.0         4.       -27.        0.0
  OSSO-CUT-1         222         8.       -27.        0.0         8.       -27.        0.0
  OSSO-CUT-1         223        12.       -27.        0.0        12.       -27.        0.0
  OSSO-CUT-1         224        16.       -26.        0.0        16.       -26.        0.0
  OSSO-CUT-1         225        18.       -26.        0.0        18.       -26.        0.0
  OSSO-CUT-1         226        21.       -26.        0.0        21.       -26.        0.0
  OSSO-CUT-1         227  -172.E-03       -30.        0.0  -171.E-03       -30.        0.0
  OSSO-CUT-1         228         2.       -30.        0.0         2.       -30.        0.0
  OSSO-CUT-1         229         5.       -31.        0.0         5.       -31.        0.0
  OSSO-CUT-1         230         8.       -31.        0.0         8.       -31.        0.0
  OSSO-CUT-1         231        11.       -30.        0.0        11.       -30.        0.0
  OSSO-CUT-1         232        14.       -30.        0.0        14.       -30.        0.0
  OSSO-CUT-1         233        18.       -30.        0.0        18.       -30.        0.0
  OSSO-CUT-1         234        21.       -30.        0.0        21.       -30.        0.0
  OSSO-CUT-1         235  -838.E-03       -32.        0.0  -838.E-03       -32.        0.0
  OSSO-CUT-1         236         2.       -33.        0.0         2.       -33.        0.0
  OSSO-CUT-1         237         4.       -33.        0.0         4.       -33.        0.0
  OSSO-CUT-1         238         7.       -33.        0.0         7.       -33.        0.0
  OSSO-CUT-1         239        11.       -33.        0.0        11.       -33.        0.0
  OSSO-CUT-1         240        15.       -33.        0.0        15.       -33.        0.0
  OSSO-CUT-1         241        18.       -34.        0.0        18.       -34.        0.0
  OSSO-CUT-1         242        21.       -33.        0.0        21.       -33.        0.0
  OSSO-CUT-1         243  -802.E-03       -36.        0.0  -802.E-03       -36.        0.0
  OSSO-CUT-1         244         1.       -36.        0.0         1.       -36.        0.0
  OSSO-CUT-1         245         5.       -36.        0.0         5.       -36.        0.0
  OSSO-CUT-1         246         7.       -37.        0.0         7.       -37.        0.0
  OSSO-CUT-1         247        11.       -37.        0.0        11.       -37.        0.0
  OSSO-CUT-1         248        14.       -36.        0.0        14.       -36.        0.0
  OSSO-CUT-1         249        18.       -37.        0.0        18.       -37.        0.0
  OSSO-CUT-1         250        20.       -36.        0.0        20.       -36.        0.0
  OSSO-CUT-1         251  -556.E-03       -40.        0.0  -556.E-03       -40.        0.0
  OSSO-CUT-1         252         2.       -40.        0.0         2.       -40.        0.0
  OSSO-CUT-1         253         5.       -40.        0.0         5.       -40.        0.0
  OSSO-CUT-1         254         8.       -40.        0.0         8.       -40.        0.0
  OSSO-CUT-1         255        11.       -39.        0.0        11.       -39.        0.0
  OSSO-CUT-1         256        14.       -39.        0.0        14.       -39.        0.0
  OSSO-CUT-1         257        18.       -39.        0.0        18.       -39.        0.0
  OSSO-CUT-1         258        20.       -39.        0.0        20.       -39.        0.0
  OSSO-CUT-1         259        17.        42.        0.0        17.        42.        0.0
  OSSO-CUT-1         260        16.        41.        0.0        16.        41.        0.0
  OSSO-CUT-1         261        15.        40.        0.0        15.        40.        0.0
  OSSO-CUT-1         262        14.        38.        0.0        14.        38.        0.0
  OSSO-CUT-1         263        13.        37.        0.0        13.        37.        0.0
  OSSO-CUT-1         264        13.        36.        0.0        13.        36.        0.0
  OSSO-CUT-1         265        14.        35.        0.0        14.        35.        0.0
  OSSO-CUT-1         266        12.        33.        0.0        12.        33.        0.0
  OSSO-CUT-1         267        11.        33.        0.0        11.        33.        0.0
  OSSO-CUT-1         268         8.        31.        0.0         8.        31.        0.0
  OSSO-CUT-1         269         8.        29.        0.0         8.        29.        0.0
  OSSO-CUT-1         270        10.        27.        0.0        10.        27.        0.0
  OSSO-CUT-1         271        11.        26.        0.0        11.        26.        0.0
  OSSO-CUT-1         272        13.        24.        0.0        13.        24.        0.0
  OSSO-CUT-1         273        14.        23.        0.0        14.        23.        0.0
  OSSO-CUT-1         274        16.        20.        0.0        16.        20.        0.0
  OSSO-CUT-1         275        17.        19.        0.0        17.        19.        0.0
  OSSO-CUT-1         276        20.        17.        0.0        20.        17.        0.0
  OSSO-CUT-1         277        22.        15.        0.0        22.        15.        0.0
  OSSO-CUT-1         278        23.        14.        0.0        23.        14.        0.0
  OSSO-CUT-1         279        25.        11.        0.0        25.        11.        0.0
  OSSO-CUT-1         280        26.        10.        0.0        26.        10.        0.0
  OSSO-CUT-1         281        26.         8.        0.0        26.         8.        0.0
  OSSO-CUT-1         282        25.         7.        0.0        25.         7.        0.0
  OSSO-CUT-1         283        23.         5.        0.0        23.         5.        0.0
  OSSO-CUT-1         284        20.         3.        0.0        20.         3.        0.0
  OSSO-CUT-1         285        19.         2.        0.0        19.         2.        0.0
  OSSO-CUT-1         286        17.  -248.E-03        0.0        17.  -249.E-03        0.0
  OSSO-CUT-1         287        16.        -1.        0.0        16.        -1.        0.0
  OSSO-CUT-1         288        14.        -1.        0.0        14.        -1.        0.0
  OSSO-CUT-1         289        13.  -128.E-03        0.0        13.  -128.E-03        0.0
  OSSO-CUT-1         290        11.         2.        0.0        11.         2.        0.0
  OSSO-CUT-1         291        10.         3.        0.0        10.         3.        0.0
  OSSO-CUT-1         292         7.         5.        0.0         7.         5.        0.0
  OSSO-CUT-1         293         6.         7.        0.0         6.         7.        0.0
  OSSO-CUT-1         294         4.         9.        0.0         4.         9.        0.0
  OSSO-CUT-1         295         2.        11.        0.0         2.        11.        0.0
  OSSO-CUT-1         296         1.        12.        0.0         1.        12.        0.0
  OSSO-CUT-1         297        -1.        14.        0.0        -1.        14.        0.0
  OSSO-CUT-1         298        -2.        15.        0.0        -2.        15.        0.0
  OSSO-CUT-1         299        -4.        17.        0.0        -4.        17.        0.0
  OSSO-CUT-1         300        -6.        17.        0.0        -6.        17.        0.0
  OSSO-CUT-1         301        -8.        15.        0.0        -8.        15.        0.0
  OSSO-CUT-1         302        -8.        14.        0.0        -8.        14.        0.0
  OSSO-CUT-1         303        -8.        12.        0.0        -8.        12.        0.0
  OSSO-CUT-1         304       -10.        12.        0.0       -10.        12.        0.0
  OSSO-CUT-1         305       -13.        13.        0.0       -13.        13.        0.0
  OSSO-CUT-1         306       -15.        10.        0.0       -15.        10.        0.0
  OSSO-CUT-1         307       -16.         9.        0.0       -16.         9.        0.0
  OSSO-CUT-1         308       -17.         7.        0.0       -17.         7.        0.0
  OSSO-CUT-1         309       -15.         5.        0.0       -15.         5.        0.0
  OSSO-CUT-1         310       -11.         3.        0.0       -11.         3.        0.0
  OSSO-CUT-1         311        -9.   649.E-03        0.0        -9.   649.E-03        0.0
  OSSO-CUT-1         312        -7.        -2.        0.0        -7.        -2.        0.0
  OSSO-CUT-1         313        -6.        -3.        0.0        -6.        -3.        0.0
  OSSO-CUT-1         314        -6.        -5.        0.0        -6.        -5.        0.0
  OSSO-CUT-1         315        -6.        -7.        0.0        -6.        -7.        0.0
  OSSO-CUT-1         316        -5.       -10.        0.0        -5.       -10.        0.0
  OSSO-CUT-1         317        -4.       -13.        0.0        -4.       -13.        0.0
  OSSO-CUT-1         318        -4.       -16.        0.0        -4.       -16.        0.0
  OSSO-CUT-1         319        -4.       -17.        0.0        -4.       -17.        0.0
  OSSO-CUT-1         320        -4.       -20.        0.0        -4.       -20.        0.0
  OSSO-CUT-1         321        -4.       -23.        0.0        -4.       -23.        0.0
  OSSO-CUT-1         322        -4.       -26.        0.0        -4.       -26.        0.0
  OSSO-CUT-1         323        -4.       -28.        0.0        -4.       -28.        0.0
  OSSO-CUT-1         324        -4.       -31.        0.0        -4.       -31.        0.0
  OSSO-CUT-1         325        -4.       -34.        0.0        -4.       -34.        0.0
  OSSO-CUT-1         326        -4.       -37.        0.0        -4.       -37.        0.0
  OSSO-CUT-1         327        -4.       -38.        0.0        -4.       -38.        0.0
  OSSO-CUT-1         328        -4.       -41.        0.0        -4.       -41.        0.0
  OSSO-CUT-1         329        -2.       -42.        0.0        -2.       -42.        0.0
  OSSO-CUT-1         330   625.E-03       -42.        0.0   625.E-03       -42.        0.0
  OSSO-CUT-1         331         2.       -42.        0.0         2.       -42.        0.0
  OSSO-CUT-1         332         5.       -42.        0.0         5.       -42.        0.0
  OSSO-CUT-1         333         8.       -42.        0.0         8.       -42.        0.0
  OSSO-CUT-1         334        11.       -42.        0.0        11.       -42.        0.0
  OSSO-CUT-1         335        14.       -42.        0.0        14.       -42.        0.0
  OSSO-CUT-1         336        15.       -42.        0.0        15.       -42.        0.0
  OSSO-CUT-1         337        18.       -42.        0.0        18.       -42.        0.0
  OSSO-CUT-1         338        21.       -42.        0.0        21.       -42.        0.0
  OSSO-CUT-1         339        23.       -41.        0.0        23.       -41.        0.0
  OSSO-CUT-1         340        23.       -40.        0.0        23.       -40.        0.0
  OSSO-CUT-1         341        23.       -37.        0.0        23.       -37.        0.0
  OSSO-CUT-1         342        23.       -34.        0.0        23.       -34.        0.0
  OSSO-CUT-1         343        23.       -32.        0.0        23.       -32.        0.0
  OSSO-CUT-1         344        24.       -29.        0.0        24.       -29.        0.0
  OSSO-CUT-1         345        24.       -26.        0.0        24.       -26.        0.0
  OSSO-CUT-1         346        24.       -25.        0.0        24.       -25.        0.0
  OSSO-CUT-1         347        24.       -22.        0.0        24.       -22.        0.0
  OSSO-CUT-1         348        25.       -19.        0.0        25.       -19.        0.0
  OSSO-CUT-1         349        25.       -17.        0.0        25.       -17.        0.0
  OSSO-CUT-1         350        25.       -14.        0.0        25.       -14.        0.0
  OSSO-CUT-1         351        26.       -11.        0.0        26.       -11.        0.0
  OSSO-CUT-1         352        26.        -8.        0.0        26.        -8.        0.0
  OSSO-CUT-1         353        26.        -7.        0.0        26.        -7.        0.0
  OSSO-CUT-1         354        27.        -4.        0.0        27.        -4.        0.0
  OSSO-CUT-1         355        27.        -1.        0.0        27.        -1.        0.0
  OSSO-CUT-1         356        28.         2.        0.0        28.         2.        0.0
  OSSO-CUT-1         357        28.         5.        0.0        28.         5.        0.0
  OSSO-CUT-1         358        29.         8.        0.0        29.         8.        0.0
  OSSO-CUT-1         359        30.        11.        0.0        30.        11.        0.0
  OSSO-CUT-1         360        30.        14.        0.0        30.        14.        0.0
  OSSO-CUT-1         361        31.        17.        0.0        31.        17.        0.0
  OSSO-CUT-1         362        31.        18.        0.0        31.        18.        0.0
  OSSO-CUT-1         363        32.        21.        0.0        32.        21.        0.0
  OSSO-CUT-1         364        32.        24.        0.0        32.        24.        0.0
  OSSO-CUT-1         365        33.        25.        0.0        33.        25.        0.0
  OSSO-CUT-1         366        33.        28.        0.0        33.        28.        0.0
  OSSO-CUT-1         367        33.        30.        0.0        33.        30.        0.0
  OSSO-CUT-1         368        33.        33.        0.0        33.        33.        0.0
  OSSO-CUT-1         369        30.        37.        0.0        30.        37.        0.0
  OSSO-CUT-1         370        27.        38.        0.0        27.        38.        0.0
  OSSO-CUT-1         371        25.        40.        0.0        25.        40.        0.0
  OSSO-CUT-1         372        22.        41.        0.0        22.        41.        0.0
  OSSO-CUT-1         373        19.        42.        0.0        19.        42.        0.0
  OSSO-CUT-1         374        -4.        -5.        0.0        -4.        -5.        0.0
  OSSO-CUT-1         375        11.        32.        0.0        11.        32.        0.0
  OSSO-CUT-1         376        -5.        16.        0.0        -5.        16.        0.0
  OSSO-CUT-1         377        -7.        14.        0.0        -7.        14.        0.0
  OSSO-CUT-1         378         9.        30.        0.0         9.        30.        0.0
  OSSO-CUT-1         379        -5.        -2.        0.0        -5.        -2.        0.0
  OSSO-CUT-1         380        18.        40.        0.0        18.        40.        0.0
  OSSO-CUT-1         381        16.        38.        0.0        16.        38.        0.0
  OSSO-CUT-1         382        15.        37.        0.0        15.        37.        0.0
  OSSO-CUT-1         383        -6.        -2.        0.0        -6.        -2.        0.0
  OSSO-CUT-1         384        -6.        -1.        0.0        -6.        -1.        0.0
  OSSO-CUT-1         385        -7.        11.        0.0        -7.        11.        0.0
  OSSO-CUT-1         386        -8.        10.        0.0        -8.        10.        0.0
  OSSO-CUT-1         387        16.        34.        0.0        16.        34.        0.0
  OSSO-CUT-1         388        23.         4.        0.0        23.         4.        0.0
  OSSO-CUT-1         389        22.        17.        0.0        22.        17.        0.0
  OSSO-CUT-1         390        -6.        15.        0.0        -6.        15.        0.0
  OSSO-CUT-1         391        19.   -97.E-03        0.0        19.   -98.E-03        0.0
  OSSO-CUT-1         392        10.        31.        0.0        10.        31.        0.0
  OSSO-CUT-1         393       -14.         6.        0.0       -14.         6.        0.0
  OSSO-CUT-1         394       -15.         7.        0.0       -15.         7.        0.0
  OSSO-CUT-1         395       -13.         5.        0.0       -13.         5.        0.0
  OSSO-CUT-1         396        12.       -41.        0.0        12.       -41.        0.0
  OSSO-CUT-1         397        17.       -41.        0.0        17.       -41.        0.0
  OSSO-CUT-1         398        20.       -41.        0.0        20.       -41.        0.0
  OSSO-CUT-1         399        11.       -41.        0.0        11.       -41.        0.0
  OSSO-CUT-1         400        14.       -41.        0.0        14.       -41.        0.0
  OSSO-CUT-1         401        15.       -41.        0.0        15.       -41.        0.0
  OSSO-CUT-1         402        18.       -41.        0.0        18.       -41.        0.0
  OSSO-CUT-1         403   766.E-03       -41.        0.0   766.E-03       -41.        0.0
  OSSO-CUT-1         404         2.       -41.        0.0         2.       -41.        0.0
  OSSO-CUT-1         405  -723.E-03       -41.        0.0  -723.E-03       -41.        0.0
  OSSO-CUT-1         406        -2.       -41.        0.0        -2.       -41.        0.0
  OSSO-CUT-1         407         9.       -41.        0.0         9.       -41.        0.0
  OSSO-CUT-1         408         7.       -41.        0.0         7.       -41.        0.0
  OSSO-CUT-1         409         4.       -41.        0.0         4.       -41.        0.0
  OSSO-CUT-1         410         5.       -41.        0.0         5.       -41.        0.0
  OSSO-CUT-1         411         8.       -41.        0.0         8.       -41.        0.0
  OSSO-CUT-1         412        31.        23.        0.0        31.        23.        0.0
  OSSO-CUT-1         413        27.        37.        0.0        27.        37.        0.0
  OSSO-CUT-1         414        18.        41.        0.0        18.        41.        0.0
  OSSO-CUT-1         415        23.        39.        0.0        23.        39.        0.0
  OSSO-CUT-1         416        25.        38.        0.0        25.        38.        0.0
  OSSO-CUT-1         417        24.        38.        0.0        24.        38.        0.0
  OSSO-CUT-1         418        31.        33.        0.0        31.        33.        0.0
  OSSO-CUT-1         419        -4.        -7.        0.0        -4.        -7.        0.0
  OSSO-CUT-1         420        31.        32.        0.0        31.        32.        0.0
  OSSO-CUT-1         421        -3.       -11.        0.0        -3.       -11.        0.0
  OSSO-CUT-1         422        -4.        -8.        0.0        -4.        -8.        0.0
  OSSO-CUT-1         423        -3.       -13.        0.0        -3.       -13.        0.0
  OSSO-CUT-1         424        -3.       -14.        0.0        -3.       -14.        0.0
  OSSO-CUT-1         425        -3.       -16.        0.0        -3.       -16.        0.0
  OSSO-CUT-1         426        31.        31.        0.0        31.        31.        0.0
  OSSO-CUT-1         427        -4.       -10.        0.0        -4.       -10.        0.0
  OSSO-CUT-1         428        -2.       -17.        0.0        -2.       -17.        0.0
  OSSO-CUT-1         429        -2.       -19.        0.0        -2.       -19.        0.0
  OSSO-CUT-1         430        -2.       -22.        0.0        -2.       -22.        0.0
  OSSO-CUT-1         431        -2.       -25.        0.0        -2.       -25.        0.0
  OSSO-CUT-1         432        -2.       -27.        0.0        -2.       -27.        0.0
  OSSO-CUT-1         433        -2.       -31.        0.0        -2.       -31.        0.0
  OSSO-CUT-1         434        -2.       -34.        0.0        -2.       -34.        0.0
  OSSO-CUT-1         435        -2.       -39.        0.0        -2.       -39.        0.0
  OSSO-CUT-1         436        -2.       -38.        0.0        -2.       -38.        0.0
  OSSO-CUT-1         437        -2.       -37.        0.0        -2.       -37.        0.0
  OSSO-CUT-1         438        32.        30.        0.0        32.        30.        0.0
  OSSO-CUT-1         439        32.        28.        0.0        32.        28.        0.0
  OSSO-CUT-1         440        31.        27.        0.0        31.        27.        0.0
  OSSO-CUT-1         441        27.         2.        0.0        27.         2.        0.0
  OSSO-CUT-1         442        25.        -8.        0.0        25.        -8.        0.0
  OSSO-CUT-1         443        26.   391.E-03        0.0        26.   390.E-03        0.0
  OSSO-CUT-1         444        25.        -7.        0.0        25.        -7.        0.0
  OSSO-CUT-1         445        26.        -1.        0.0        26.        -1.        0.0
  OSSO-CUT-1         446        25.        -5.        0.0        25.        -5.        0.0
  OSSO-CUT-1         447        26.        -2.        0.0        26.        -2.        0.0
  OSSO-CUT-1         448        26.        -4.        0.0        26.        -4.        0.0
  OSSO-CUT-1         449        27.        11.        0.0        27.        11.        0.0
  OSSO-CUT-1         450        27.         3.        0.0        27.         3.        0.0
  OSSO-CUT-1         451        28.         7.        0.0        28.         7.        0.0
  OSSO-CUT-1         452        28.         8.        0.0        28.         8.        0.0
  OSSO-CUT-1         453        23.       -19.        0.0        23.       -19.        0.0
  OSSO-CUT-1         454        29.        14.        0.0        29.        14.        0.0
  OSSO-CUT-1         455        29.        15.        0.0        29.        15.        0.0
  OSSO-CUT-1         456        30.        17.        0.0        30.        17.        0.0
  OSSO-CUT-1         457        28.        12.        0.0        28.        12.        0.0
  OSSO-CUT-1         458        30.        18.        0.0        30.        18.        0.0
  OSSO-CUT-1         459        23.       -20.        0.0        23.       -20.        0.0
  OSSO-CUT-1         460        30.        20.        0.0        30.        20.        0.0
  OSSO-CUT-1         461        21.       -39.        0.0        21.       -39.        0.0
  OSSO-CUT-1         462        22.       -36.        0.0        22.       -36.        0.0
  OSSO-CUT-1         463        22.       -35.        0.0        22.       -35.        0.0
  OSSO-CUT-1         464        22.       -33.        0.0        22.       -33.        0.0
  OSSO-CUT-1         465        23.       -22.        0.0        23.       -22.        0.0
  OSSO-CUT-1         466        22.       -32.        0.0        22.       -32.        0.0
  OSSO-CUT-1         467        22.       -30.        0.0        22.       -30.        0.0
  OSSO-CUT-1         468        23.       -23.        0.0        23.       -23.        0.0
  OSSO-CUT-1         469        22.       -29.        0.0        22.       -29.        0.0
  OSSO-CUT-1         470        23.       -25.        0.0        23.       -25.        0.0
  OSSO-CUT-1         471        22.       -28.        0.0        22.       -28.        0.0
  OSSO-CUT-1         472        23.       -26.        0.0        23.       -26.        0.0
  OSSO-CUT-1         473        17.        -2.        0.0        17.        -2.        0.0
  OSSO-CUT-1         474        26.         6.        0.0        26.         6.        0.0
  OSSO-CUT-1         475        20.   988.E-03        0.0        20.   987.E-03        0.0
  OSSO-CUT-1         476        22.         3.        0.0        22.         3.        0.0
  OSSO-CUT-1         477        27.         7.        0.0        27.         7.        0.0
  OSSO-CUT-1         478        10.        29.        0.0        10.        29.        0.0
  OSSO-CUT-1         479        -4.        15.        0.0        -4.        15.        0.0
  OSSO-CUT-1         480         9.         1.        0.0        10.         1.        0.0
  OSSO-CUT-1         481         7.         3.        0.0         7.         3.        0.0
  OSSO-CUT-1         482        10.   -17.E-03        0.0        11.   -18.E-03        0.0
  OSSO-CUT-1         483        -2.        13.        0.0        -2.        13.        0.0
  OSSO-CUT-1         484         4.         7.        0.0         4.         7.        0.0
  OSSO-CUT-1         485    21.E-03        11.        0.0    24.E-03        11.        0.0
  OSSO-CUT-1         486         3.         8.        0.0         3.         8.        0.0
  OSSO-CUT-1         487         1.        10.        0.0         1.        10.        0.0
  OSSO-CUT-1         488         5.         6.        0.0         5.         6.        0.0
  OSSO-CUT-1         489         2.         9.        0.0         2.         9.        0.0
  OSSO-CUT-1         490         6.         5.        0.0         6.         5.        0.0
  OSSO-CUT-1         491        -3.        14.        0.0        -3.        14.        0.0
  OSSO-CUT-1         492  -999.E-03        12.        0.0  -996.E-03        12.        0.0
  OSSO-CUT-1         493        14.        25.        0.0        14.        25.        0.0
  OSSO-CUT-1         494        16.        22.        0.0        16.        22.        0.0
  OSSO-CUT-1         495        19.        20.        0.0        19.        20.        0.0
  OSSO-CUT-1         496        25.        14.        0.0        25.        14.        0.0
  OSSO-CUT-1         497        11.        28.        0.0        11.        28.        0.0
  OSSO-CUT-1         498        13.        26.        0.0        13.        26.        0.0
  OSSO-CUT-1         499        12.        27.        0.0        12.        27.        0.0
  OSSO-CUT-1         500        20.        19.        0.0        20.        19.        0.0
  OSSO-CUT-1         501        15.        24.        0.0        15.        24.        0.0
  OSSO-CUT-1         502        13.        -2.        0.0        13.        -2.        0.0
  OSSO-CUT-1         503       -14.         9.        0.0       -14.         9.        0.0
  OSSO-CUT-1         504       -15.         8.        0.0       -15.         8.        0.0
  OSSO-CUT-1         505       -13.        10.        0.0       -13.        10.        0.0
  OSSO-CUT-1         506       -12.         6.        0.0       -12.         6.        0.0
  OSSO-CUT-1         507         9.        -1.        0.0         9.        -1.        0.0
  OSSO-CUT-1         508        20.       -35.        0.0        20.       -35.        0.0
  OSSO-CUT-1         509        -1.       -19.        0.0        -1.       -19.        0.0
  OSSO-CUT-1         510        24.        -7.        0.0        24.        -7.        0.0
  OSSO-CUT-1         511        -6.        13.        0.0        -6.        13.        0.0
  OSSO-CUT-1         512        17.        39.        0.0        17.        39.        0.0
  OSSO-CUT-1         513        17.        37.        0.0        17.        37.        0.0
  OSSO-CUT-1         514        30.        25.        0.0        30.        25.        0.0
  OSSO-CUT-1         515         6.         3.        0.0         6.         3.        0.0
  OSSO-CUT-1         516        30.        31.        0.0        30.        31.        0.0
  OSSO-CUT-1         517        -6.         9.        0.0        -6.         9.        0.0
  OSSO-CUT-1         518        13.        30.        0.0        13.        30.        0.0
  OSSO-CUT-1         519        20.       -38.        0.0        20.       -38.        0.0
  OSSO-CUT-1         520        26.        36.        0.0        26.        36.        0.0
  OSSO-CUT-1         521       -12.         9.        0.0       -12.         9.        0.0
  OSSO-CUT-1         522        -3.        -6.        0.0        -3.        -6.        0.0
  OSSO-CUT-1         523        21.       -32.        0.0        21.       -32.        0.0
  OSSO-CUT-1         524        -6.   156.E-03        0.0        -6.   156.E-03        0.0
  OSSO-CUT-1         525        -3.        -7.        0.0        -3.        -7.        0.0
  OSSO-CUT-1         526        -3.        -1.        0.0        -3.        -1.        0.0
  OSSO-CUT-1         527        23.        -9.        0.0        23.        -9.        0.0
  OSSO-CUT-1         528        30.        28.        0.0        30.        28.        0.0
  OSSO-CUT-1         529        -1.       -16.        0.0        -1.       -16.        0.0
  OSSO-CUT-1         530        23.        37.        0.0        23.        37.        0.0
  OSSO-CUT-1         531        19.        -2.        0.0        19.        -2.        0.0
  OSSO-CUT-1         532        -9.        10.        0.0        -9.        10.        0.0
  OSSO-CUT-1         533        -2.        -4.        0.0        -2.        -4.        0.0
  OSSO-CUT-1         534  -261.E-03       -38.        0.0  -260.E-03       -38.        0.0
  OSSO-CUT-1         535        22.        19.        0.0        22.        19.        0.0
  OSSO-CUT-1         536        16.        36.        0.0        16.        36.        0.0
  OSSO-CUT-1         537        17.        33.        0.0        17.        33.        0.0
  OSSO-CUT-1         538        17.       -39.        0.0        17.       -39.        0.0
  OSSO-CUT-1         539        12.       -40.        0.0        12.       -40.        0.0
  OSSO-CUT-1         540         9.       -40.        0.0         9.       -40.        0.0
  OSSO-CUT-1         541   997.E-03       -40.        0.0   997.E-03       -40.        0.0
  OSSO-CUT-1         542         7.       -40.        0.0         7.       -40.        0.0
  OSSO-CUT-1         543        -2.        -8.        0.0        -2.        -8.        0.0
  OSSO-CUT-1         544        22.         1.        0.0        22.         1.        0.0
  OSSO-CUT-1         545        25.        37.        0.0        25.        37.        0.0
  OSSO-CUT-1         546        20.        40.        0.0        20.        40.        0.0
  OSSO-CUT-1         547         4.         6.        0.0         4.         6.        0.0
  OSSO-CUT-1         548        29.        21.        0.0        29.        21.        0.0
  OSSO-CUT-1         549        30.        34.        0.0        30.        34.        0.0
  OSSO-CUT-1         550        -2.       -35.        0.0        -2.       -35.        0.0
  OSSO-CUT-1         551        28.         9.        0.0        28.         9.        0.0
  OSSO-CUT-1         552        21.       -38.        0.0        21.       -38.        0.0
  OSSO-CUT-1         553        29.        20.        0.0        29.        20.        0.0
  OSSO-CUT-1         554        28.        17.        0.0        28.        17.        0.0
  OSSO-CUT-1         555        27.        14.        0.0        27.        14.        0.0
  OSSO-CUT-1         556        21.       -25.        0.0        21.       -25.        0.0
  OSSO-CUT-1         557        21.       -23.        0.0        21.       -23.        0.0
  OSSO-CUT-1         558        25.         2.        0.0        25.         2.        0.0
  OSSO-CUT-1         559        22.       -22.        0.0        22.       -22.        0.0
  OSSO-CUT-1         560        25.        -1.        0.0        25.        -1.        0.0
  OSSO-CUT-1         561        22.       -20.        0.0        22.       -20.        0.0
  OSSO-CUT-1         562        24.        -4.        0.0        24.        -4.        0.0
  OSSO-CUT-1         563        28.        18.        0.0        29.        18.        0.0
  OSSO-CUT-1         564        24.         3.        0.0        24.         3.        0.0
  OSSO-CUT-1         565        18.        23.        0.0        18.        23.        0.0
  OSSO-CUT-1         566        25.         4.        0.0        25.         4.        0.0
  OSSO-CUT-1         567  -995.E-03       -35.        0.0  -995.E-03       -35.        0.0
  OSSO-CUT-1         568   298.E-03         9.        0.0   301.E-03         9.        0.0
  OSSO-CUT-1         569        -3.        12.        0.0        -3.        12.        0.0
  OSSO-CUT-1         570        12.        -1.        0.0        12.        -1.        0.0
  OSSO-CUT-1         571         9.         2.        0.0         9.         2.        0.0
  OSSO-CUT-1         572        15.        26.        0.0        15.        26.        0.0
  OSSO-CUT-1         573        22.        38.        0.0        22.        38.        0.0
  OSSO-CUT-1         574  -920.E-03       -13.        0.0  -918.E-03       -13.        0.0
  OSSO-CUT-1         575        21.   157.E-03        0.0        21.   156.E-03        0.0
  OSSO-CUT-1         576        21.       -29.        0.0        21.       -29.        0.0
  OSSO-CUT-1         577        12.        29.        0.0        12.        29.        0.0
  OSSO-CUT-1         578        16.        -4.        0.0        16.        -4.        0.0
  OSSO-CUT-1         579        21.        36.        0.0        21.        36.        0.0
  OSSO-CUT-1         580        25.        35.        0.0        25.        35.        0.0
  OSSO-CUT-1         581        20.       -25.        0.0        20.       -25.        0.0
  OSSO-CUT-1         582        17.       -38.        0.0        17.       -38.        0.0
  OSSO-CUT-1         583        28.        16.        0.0        28.        16.        0.0
  OSSO-CUT-1         584        20.       -22.        0.0        20.       -22.        0.0
  OSSO-CUT-1         585        29.        35.        0.0        29.        35.        0.0
  OSSO-CUT-1         586        14.        36.        0.0        14.        36.        0.0
  OSSO-CUT-1         587        18.        38.        0.0        18.        38.        0.0
  OSSO-CUT-1         588        17.        -6.        0.0        17.        -6.        0.0
  OSSO-CUT-1         589   252.E-03       -12.        0.0   254.E-03       -12.        0.0
  OSSO-CUT-1         590        20.       -29.        0.0        20.       -29.        0.0
  OSSO-CUT-1         591        28.        30.        0.0        28.        30.        0.0
  OSSO-CUT-1         592        19.       -33.        0.0        19.       -33.        0.0
  OSSO-CUT-1         593        13.        28.        0.0        13.        28.        0.0
  OSSO-CUT-1         594   301.E-03       -17.        0.0   303.E-03       -17.        0.0
  OSSO-CUT-1         595        23.   337.E-03        0.0        23.   335.E-03        0.0
  OSSO-CUT-1         596        -3.        -3.        0.0        -3.        -3.        0.0
  OSSO-CUT-1         597        -2.   -34.E-03        0.0        -2.   -34.E-03        0.0
  OSSO-CUT-1         598        11.        -3.        0.0        11.        -3.        0.0
  OSSO-CUT-1         599        -7.         9.        0.0        -7.         9.        0.0
  OSSO-CUT-1         600        -5.        11.        0.0        -5.        11.        0.0
  OSSO-CUT-1         601        -6.         2.        0.0        -6.         2.        0.0
  OSSO-CUT-1         602        23.        -4.        0.0        23.        -4.        0.0
  OSSO-CUT-1         603   531.E-03       -15.        0.0   533.E-03       -15.        0.0
  OSSO-CUT-1         604        23.        -8.        0.0        23.        -8.        0.0
  OSSO-CUT-1         605         8.   167.E-03        0.0         8.   166.E-03        0.0
  OSSO-CUT-1         606        19.       -35.        0.0        19.       -35.        0.0
  OSSO-CUT-1         607        20.       -19.        0.0        20.       -19.        0.0
  OSSO-CUT-1         608        14.        31.        0.0        15.        31.        0.0
  OSSO-CUT-1         609         1.       -38.        0.0         1.       -38.        0.0
  OSSO-CUT-1         610        -5.   922.E-03        0.0        -5.   921.E-03        0.0
  OSSO-CUT-1         611         9.        -3.        0.0         9.        -3.        0.0
  OSSO-CUT-1         612        17.        35.        0.0        17.        35.        0.0
  OSSO-CUT-1         613        29.        27.        0.0        29.        27.        0.0
  OSSO-CUT-1         614        11.       -40.        0.0        11.       -40.        0.0
  OSSO-CUT-1         615        16.        24.        0.0        16.        24.        0.0
  OSSO-CUT-1         616   347.E-03       -36.        0.0   348.E-03       -36.        0.0
  OSSO-CUT-1         617         6.   651.E-03        0.0         6.   651.E-03        0.0
  OSSO-CUT-1         618        28.        29.        0.0        28.        29.        0.0
  OSSO-CUT-1         619       -11.        10.        0.0       -11.        10.        0.0
  OSSO-CUT-1         620        21.        38.        0.0        21.        38.        0.0
  OSSO-CUT-1         621        16.        26.        0.0        16.        26.        0.0
  OSSO-CUT-1         622        -2.       -20.        0.0        -2.       -20.        0.0
  OSSO-CUT-1         623        29.        23.        0.0        29.        23.        0.0
  OSSO-CUT-1         624        31.        25.        0.0        31.        25.        0.0
  OSSO-CUT-1         625        22.       -19.        0.0        22.       -19.        0.0
  OSSO-CUT-1         626        18.        -3.        0.0        18.        -3.        0.0
  OSSO-CUT-1         627        25.         3.        0.0        25.         3.        0.0
  OSSO-CUT-1         628   323.E-03       -34.        0.0   323.E-03       -34.        0.0
  OSSO-CUT-1         629        -4.        13.        0.0        -4.        13.        0.0
  OSSO-CUT-1         630         4.         4.        0.0         4.         4.        0.0
  OSSO-CUT-1         631       -13.         8.        0.0       -13.         8.        0.0
  OSSO-CUT-1         632        10.       -38.        0.0        10.       -38.        0.0
  OSSO-CUT-1         633        -1.        10.        0.0        -1.        10.        0.0
  OSSO-CUT-1         634        -2.       -10.        0.0        -2.       -10.        0.0
  OSSO-CUT-1         635        -1.        -6.        0.0        -1.        -6.        0.0
  OSSO-CUT-1         636        16.        32.        0.0        16.        32.        0.0
  OSSO-CUT-1         637        20.        39.        0.0        20.        39.        0.0
  OSSO-CUT-1         638         7.       -39.        0.0         7.       -39.        0.0
  OSSO-CUT-1         639  -749.E-03        -9.        0.0  -747.E-03        -9.        0.0
  OSSO-CUT-1         640        23.        18.        0.0        23.        18.        0.0
  OSSO-CUT-1         641        29.        28.        0.0        29.        28.        0.0
  OSSO-CUT-1         642        22.  -619.E-03        0.0        22.  -620.E-03        0.0
  OSSO-CUT-1         643        23.        16.        0.0        23.        16.        0.0
  OSSO-CUT-1         644        -5.        13.        0.0        -5.        13.        0.0
  OSSO-CUT-1         645        21.        35.        0.0        21.        35.        0.0
  OSSO-CUT-1         646   371.E-03        -6.        0.0   374.E-03        -6.        0.0
  OSSO-CUT-1         647        23.        36.        0.0        23.        36.        0.0
  OSSO-CUT-1         648        -2.        -3.        0.0        -2.        -3.        0.0
  OSSO-CUT-1         649        19.        38.        0.0        19.        38.        0.0
  OSSO-CUT-1         650        27.        29.        0.0        27.        29.        0.0
  OSSO-CUT-1         651        24.        19.        0.0        24.        19.        0.0
  OSSO-CUT-1         652        -3.         9.        0.0        -3.         9.        0.0
  OSSO-CUT-1         653        28.        23.        0.0        28.        23.        0.0
  OSSO-CUT-1         654        30.        24.        0.0        30.        24.        0.0
  OSSO-CUT-1         655        -6.         8.        0.0        -6.         8.        0.0
  OSSO-CUT-1         656        25.        -2.        0.0        25.        -2.        0.0
  OSSO-CUT-1         657        -3.   417.E-03        0.0        -3.   417.E-03        0.0
  OSSO-CUT-1         658        -2.        -2.        0.0        -2.        -2.        0.0
  OSSO-CUT-1         659        18.       -38.        0.0        18.       -38.        0.0
  OSSO-CUT-1         660        19.       -36.        0.0        19.       -36.        0.0
  OSSO-CUT-1         661        23.        35.        0.0        23.        35.        0.0
  OSSO-CUT-1         662        20.       -26.        0.0        20.       -26.        0.0
  OSSO-CUT-1         663        19.       -23.        0.0        19.       -23.        0.0
  OSSO-CUT-1         664        26.        17.        0.0        26.        17.        0.0
  OSSO-CUT-1         665   857.E-03       -13.        0.0   859.E-03       -13.        0.0
  OSSO-CUT-1         666        20.       -30.        0.0        20.       -30.        0.0
  OSSO-CUT-1         667   241.E-03       -19.        0.0   242.E-03       -19.        0.0
  OSSO-CUT-1         668        15.        -7.        0.0        15.        -7.        0.0
  OSSO-CUT-1         669         2.       -37.        0.0         2.       -37.        0.0
  OSSO-CUT-1         670   413.E-03       -16.        0.0   415.E-03       -16.        0.0
  OSSO-CUT-1         671        15.        29.        0.0        15.        29.        0.0
  OSSO-CUT-1         672        19.       -34.        0.0        19.       -34.        0.0
  OSSO-CUT-1         673        23.        -5.        0.0        23.        -5.        0.0
  OSSO-CUT-1         674        19.       -20.        0.0        19.       -20.        0.0
  OSSO-CUT-1         675        -1.        -7.        0.0        -1.        -7.        0.0
  OSSO-CUT-1         676         8.       -38.        0.0         8.       -38.        0.0
  OSSO-CUT-1         677   166.E-03       -35.        0.0   167.E-03       -35.        0.0
  OSSO-CUT-1         678        -7.         3.        0.0        -7.         3.        0.0
  OSSO-CUT-1         679         5.       -39.        0.0         5.       -39.        0.0
  OSSO-CUT-1         680        16.        28.        0.0        16.        28.        0.0
  OSSO-CUT-1         681        17.        25.        0.0        17.        25.        0.0
  OSSO-CUT-1         682   423.E-03        -8.        0.0   425.E-03        -8.        0.0
  OSSO-CUT-1         683         6.         4.        0.0         6.         4.        0.0
  OSSO-CUT-1         684        19.        -4.        0.0        19.        -4.        0.0
  OSSO-CUT-1         685        22.        -2.        0.0        22.        -2.        0.0
  OSSO-CUT-1         686        25.        16.        0.0        25.        16.        0.0
  OSSO-CUT-1         687        -5.         3.        0.0        -5.         3.        0.0
  OSSO-CUT-1         688        19.       -19.        0.0        19.       -19.        0.0
  OSSO-CUT-1         689  -737.E-03        -3.        0.0  -734.E-03        -3.        0.0
  OSSO-CUT-1         690         1.       -12.        0.0         1.       -12.        0.0
  OSSO-CUT-1         691        28.        32.        0.0        28.        32.        0.0
  OSSO-CUT-1         692        18.       -19.        0.0        18.       -19.        0.0
  OSSO-CUT-1         693        -4.        11.        0.0        -4.        11.        0.0
  OSSO-CUT-1         694   430.E-03        -5.        0.0   433.E-03        -5.        0.0
  OSSO-CUT-1         695        20.        34.        0.0        20.        34.        0.0
  OSSO-CUT-1         696        26.        15.        0.0        26.        15.        0.0
  OSSO-CUT-1         697   365.E-03        -7.        0.0   367.E-03        -7.        0.0
  OSSO-CUT-1         698        -2.         1.        0.0        -2.         1.        0.0
  OSSO-CUT-1         699        12.       -38.        0.0        12.       -38.        0.0
  OSSO-CUT-1         700        -7.         8.        0.0        -7.         8.        0.0
  OSSO-CUT-1         701        19.       -25.        0.0        19.       -25.        0.0
  OSSO-CUT-1         702         4.       -39.        0.0         4.       -39.        0.0
  OSSO-CUT-1         703        19.       -22.        0.0        19.       -22.        0.0
  OSSO-CUT-1         704        18.       -29.        0.0        18.       -29.        0.0
  OSSO-CUT-1         705         6.       -38.        0.0         6.       -38.        0.0
  OSSO-CUT-1         706         2.       -15.        0.0         2.       -15.        0.0
  OSSO-CUT-1         707   595.E-03        -9.        0.0   597.E-03        -9.        0.0
  OSSO-CUT-1         708        21.        -4.        0.0        22.        -4.        0.0
  OSSO-CUT-1         709        26.        18.        0.0        26.        18.        0.0
  OSSO-CUT-1         710        13.        -6.        0.0        13.        -6.        0.0
  OSSO-CUT-1         711        16.        -7.        0.0        16.        -7.        0.0
  OSSO-CUT-1         712        22.        -6.        0.0        22.        -6.        0.0
  OSSO-CUT-1         713         4.         2.        0.0         4.         2.        0.0
  OSSO-CUT-1         714        17.        29.        0.0        17.        29.        0.0
  OSSO-CUT-1         715        20.        -3.        0.0        20.        -3.        0.0
  OSSO-CUT-1         716        19.       -18.        0.0        19.       -18.        0.0
  OSSO-CUT-1         717        -3.         3.        0.0        -3.         3.        0.0
  OSSO-CUT-1         718        16.        30.        0.0        16.        30.        0.0
  OSSO-CUT-1         719        27.        23.        0.0        27.        23.        0.0
  OSSO-CUT-1         720        26.        29.        0.0        26.        29.        0.0
  OSSO-CUT-1         721         2.       -32.        0.0         2.       -32.        0.0
  OSSO-CUT-1         722        17.       -36.        0.0        17.       -36.        0.0
  OSSO-CUT-1         723        -4.        10.        0.0        -4.        10.        0.0
  OSSO-CUT-1         724        17.       -28.        0.0        17.       -28.        0.0
  OSSO-CUT-1         725         6.       -37.        0.0         6.       -37.        0.0
  OSSO-CUT-1         726         2.        -6.        0.0         2.        -6.        0.0
  OSSO-CUT-1         727         2.       -14.        0.0         2.       -14.        0.0
  OSSO-CUT-1         728        13.       -35.        0.0        13.       -35.        0.0
  OSSO-CUT-1         729  -392.E-03       -10.        0.0  -390.E-03       -10.        0.0
  OSSO-CUT-1         730        19.        35.        0.0        19.        35.        0.0
  OSSO-CUT-1         731        22.        34.        0.0        22.        34.        0.0
  OSSO-CUT-1         732         4.       -40.        0.0         4.       -40.        0.0
  OSSO-CUT-1         733        29.        33.        0.0        29.        33.        0.0
  OSSO-CUT-1         734        13.       -39.        0.0        13.       -39.        0.0
  OSSO-CUT-1         735         9.       -37.        0.0         9.       -37.        0.0
  OSSO-CUT-1         736         7.       -38.        0.0         7.       -38.        0.0
  OSSO-CUT-1         737        15.       -38.        0.0        15.       -38.        0.0
  OSSO-CUT-1         738        -8.         6.        0.0        -8.         6.        0.0
  OSSO-CUT-1         739        -7.         7.        0.0        -7.         7.        0.0
  OSSO-CUT-1         740        17.       -23.        0.0        17.       -23.        0.0
  OSSO-CUT-1         741  -645.E-03       -31.        0.0  -644.E-03       -31.        0.0
  OSSO-CUT-1         742         2.         4.        0.0         2.         4.        0.0
  OSSO-CUT-1         743        20.       -16.        0.0        20.       -16.        0.0
  OSSO-CUT-1         744         4.       -15.        0.0         4.       -15.        0.0
  OSSO-CUT-1         745        18.        -6.        0.0        18.        -6.        0.0
  OSSO-CUT-1         746        12.        -5.        0.0        12.        -5.        0.0
  OSSO-CUT-1         747         3.   512.E-03        0.0         3.   511.E-03        0.0
  OSSO-CUT-1         748        -3.         2.        0.0        -3.         2.        0.0
  OSSO-CUT-1         749        16.       -35.        0.0        16.       -35.        0.0
  OSSO-CUT-1         750        25.        24.        0.0        25.        24.        0.0
  OSSO-CUT-1         751         3.       -32.        0.0         3.       -32.        0.0
  OSSO-CUT-1         752        20.        -7.        0.0        20.        -7.        0.0
  OSSO-CUT-1         753   857.E-03        -2.        0.0   860.E-03        -2.        0.0
  OSSO-CUT-1         754        27.        18.        0.0        27.        18.        0.0
  OSSO-CUT-1         755        19.        28.        0.0        19.        28.        0.0
  OSSO-CUT-1         756        14.        -7.        0.0        14.        -7.        0.0
  OSSO-CUT-1         757         3.       -37.        0.0         3.       -37.        0.0
  OSSO-CUT-1         758        18.       -31.        0.0        18.       -31.        0.0
  OSSO-CUT-1         759        20.        21.        0.0        20.        21.        0.0
  OSSO-CUT-1         760        17.       -19.        0.0        17.       -19.        0.0
  OSSO-CUT-1         761        20.  -932.E-03        0.0        20.  -933.E-03        0.0
  OSSO-CUT-1         762        26.        30.        0.0        26.        30.        0.0
  OSSO-CUT-1         763        26.        28.        0.0        26.        28.        0.0
  OSSO-CUT-1         764        27.        25.        0.0        27.        25.        0.0
  OSSO-CUT-1         765        16.       -23.        0.0        16.       -23.        0.0
  OSSO-CUT-1         766        20.        -6.        0.0        20.        -6.        0.0
  OSSO-CUT-1         767        28.        34.        0.0        28.        34.        0.0
  OSSO-CUT-1         768        -5.         7.        0.0        -5.         7.        0.0
  OSSO-CUT-1         769        22.        32.        0.0        22.        32.        0.0
  OSSO-CUT-1         770        20.        23.        0.0        20.        23.        0.0
  OSSO-CUT-1         771         3.        -6.        0.0         3.        -6.        0.0
  OSSO-CUT-1         772        12.        -7.        0.0        12.        -7.        0.0
  OSSO-CUT-1         773        20.        37.        0.0        20.        37.        0.0
  OSSO-CUT-1         774        -5.        10.        0.0        -5.        10.        0.0
  OSSO-CUT-1         775        13.        -8.        0.0        13.        -8.        0.0
  OSSO-CUT-1         776        12.       -40.        0.0        12.       -40.        0.0
  OSSO-CUT-1         777         5.       -35.        0.0         5.       -35.        0.0
  OSSO-CUT-1         778        17.       -30.        0.0        17.       -30.        0.0
  OSSO-CUT-1         779   691.E-03       -31.        0.0   692.E-03       -31.        0.0
  OSSO-CUT-1         780         7.       -36.        0.0         7.       -36.        0.0
  OSSO-CUT-1         781        19.        33.        0.0        19.        33.        0.0
  OSSO-CUT-1         782        11.       -34.        0.0        11.       -34.        0.0
  OSSO-CUT-1         783        18.        34.        0.0        18.        34.        0.0
  OSSO-CUT-1         784         1.       -11.        0.0         1.       -11.        0.0
  OSSO-CUT-1         785        -6.         6.        0.0        -6.         6.        0.0
  OSSO-CUT-1         786        18.       -35.        0.0        18.       -35.        0.0
  OSSO-CUT-1         787         5.       -14.        0.0         5.       -14.        0.0
  OSSO-CUT-1         788        19.       -15.        0.0        19.       -15.        0.0
  OSSO-CUT-1         789        -9.         7.        0.0        -9.         7.        0.0
  OSSO-CUT-1         790         2.        -4.        0.0         2.        -4.        0.0
  OSSO-CUT-1         791         3.       -33.        0.0         3.       -33.        0.0
  OSSO-CUT-1         792        25.        22.        0.0        25.        22.        0.0
  OSSO-CUT-1         793         5.    59.E-03        0.0         5.    59.E-03        0.0
  OSSO-CUT-1         794        17.       -26.        0.0        17.       -26.        0.0
  OSSO-CUT-1         795        19.        -8.        0.0        19.        -8.        0.0
  OSSO-CUT-1         796         4.       -35.        0.0         4.       -35.        0.0
  OSSO-CUT-1         797        25.        19.        0.0        25.        19.        0.0
  OSSO-CUT-1         798        17.       -31.        0.0        17.       -31.        0.0
  OSSO-CUT-1         799        26.        31.        0.0        26.        31.        0.0
  OSSO-CUT-1         800        24.        28.        0.0        24.        28.        0.0
  OSSO-CUT-1         801        -2.       -29.        0.0        -2.       -29.        0.0
  OSSO-CUT-1         802         3.        -2.        0.0         3.        -2.        0.0
  OSSO-CUT-1         803        18.       -22.        0.0        18.       -22.        0.0
  OSSO-CUT-1         804        -4.         7.        0.0        -4.         7.        0.0
  OSSO-CUT-1         805        19.        -7.        0.0        19.        -7.        0.0
  OSSO-CUT-1         806        21.        31.        0.0        21.        31.        0.0
  OSSO-CUT-1         807        23.        33.        0.0        23.        33.        0.0
  OSSO-CUT-1         808         3.        -5.        0.0         3.        -5.        0.0
  OSSO-CUT-1         809        26.        34.        0.0        26.        34.        0.0
  OSSO-CUT-1         810         7.       -35.        0.0         7.       -35.        0.0
  OSSO-CUT-1         811        10.       -35.        0.0        10.       -35.        0.0
  OSSO-CUT-1         812        14.        -9.        0.0        14.        -9.        0.0
  OSSO-CUT-1         813        15.       -28.        0.0        15.       -28.        0.0
  OSSO-CUT-1         814        13.       -34.        0.0        13.       -34.        0.0
  OSSO-CUT-1         815        16.       -34.        0.0        16.       -34.        0.0
  OSSO-CUT-1         816         5.       -15.        0.0         5.       -15.        0.0
  OSSO-CUT-1         817         4.       -32.        0.0         4.       -32.        0.0
  OSSO-CUT-1         818         3.       -34.        0.0         3.       -34.        0.0
  OSSO-CUT-1         819         3.  -950.E-03        0.0         3.  -951.E-03        0.0
  OSSO-CUT-1         820       -11.         6.        0.0       -11.         6.        0.0
  OSSO-CUT-1         821        20.        -9.        0.0        20.        -9.        0.0
  OSSO-CUT-1         822        25.        31.        0.0        25.        31.        0.0
  OSSO-CUT-1         823         1.       -29.        0.0         1.       -29.        0.0
  OSSO-CUT-1         824   215.E-03         4.        0.0   218.E-03         4.        0.0
  OSSO-CUT-1         825         3.       -13.        0.0         3.       -13.        0.0
  OSSO-CUT-1         826        22.        28.        0.0        22.        28.        0.0
  OSSO-CUT-1         827        -2.         3.        0.0        -2.         3.        0.0
  OSSO-CUT-1         828   882.E-03       -37.        0.0   882.E-03       -37.        0.0
  OSSO-CUT-1         829        24.        22.        0.0        24.        22.        0.0
  OSSO-CUT-1         830        19.        27.        0.0        19.        27.        0.0
  OSSO-CUT-1         831        22.       -15.        0.0        22.       -15.        0.0
  OSSO-CUT-1         832         4.       -34.        0.0         4.       -34.        0.0
  OSSO-CUT-1         833        -4.         8.        0.0        -4.         8.        0.0
  OSSO-CUT-1         834        19.        29.        0.0        19.        29.        0.0
  OSSO-CUT-1         835        16.       -20.        0.0        16.       -20.        0.0
  OSSO-CUT-1         836        16.       -31.        0.0        16.       -31.        0.0
  OSSO-CUT-1         837        24.        19.        0.0        24.        19.        0.0
  OSSO-CUT-1         838        16.       -24.        0.0        16.       -24.        0.0
  OSSO-CUT-1         839        15.       -19.        0.0        15.       -19.        0.0
  OSSO-CUT-1         840        23.        20.        0.0        23.        20.        0.0
  OSSO-CUT-1         841         3.       -31.        0.0         3.       -31.        0.0
  OSSO-CUT-1         842        17.       -32.        0.0        17.       -32.        0.0
  OSSO-CUT-1         843        23.         2.        0.0        23.         2.        0.0
  OSSO-CUT-1         844        22.        22.        0.0        22.        22.        0.0
  OSSO-CUT-1         845        19.        24.        0.0        19.        24.        0.0
  OSSO-CUT-1         846        18.       -16.        0.0        18.       -16.        0.0
  OSSO-CUT-1         847        -9.         5.        0.0        -9.         5.        0.0
  OSSO-CUT-1         848        10.        -4.        0.0        10.        -4.        0.0
  OSSO-CUT-1         849        19.       -31.        0.0        19.       -31.        0.0
  OSSO-CUT-1         850        15.       -35.        0.0        15.       -35.        0.0
  OSSO-CUT-1         851         2.       -19.        0.0         2.       -19.        0.0
  OSSO-CUT-1         852        17.        -4.        0.0        17.        -4.        0.0
  OSSO-CUT-1         853        -6.         4.        0.0        -6.         4.        0.0
  OSSO-CUT-1         854        15.       -22.        0.0        15.       -22.        0.0
  OSSO-CUT-1         855         8.        -5.        0.0         8.        -5.        0.0
  OSSO-CUT-1         856         9.        -6.        0.0         9.        -6.        0.0
  OSSO-CUT-1         857         5.       -16.        0.0         5.       -16.        0.0
  OSSO-CUT-1         858        23.       -16.        0.0        23.       -16.        0.0
  OSSO-CUT-1         859        22.       -14.        0.0        22.       -14.        0.0
  OSSO-CUT-1         860         4.        -3.        0.0         4.        -3.        0.0
  OSSO-CUT-1         861         3.       -18.        0.0         3.       -18.        0.0
  OSSO-CUT-1         862        13.       -32.        0.0        13.       -32.        0.0
  OSSO-CUT-1         863        26.        32.        0.0        26.        32.        0.0
  OSSO-CUT-1         864        24.        31.        0.0        24.        31.        0.0
  OSSO-CUT-1         865        -3.         6.        0.0        -3.         6.        0.0
  OSSO-CUT-1         866       -10.         4.        0.0       -10.         4.        0.0
  OSSO-CUT-1         867         5.        -6.        0.0         5.        -6.        0.0
  OSSO-CUT-1         868        -3.        11.        0.0        -3.        11.        0.0
  OSSO-CUT-1         869        20.        32.        0.0        20.        32.        0.0
  OSSO-CUT-1         870        10.       -36.        0.0        10.       -36.        0.0
  OSSO-CUT-1         871        22.        26.        0.0        22.        26.        0.0
  OSSO-CUT-1         872        17.       -27.        0.0        17.       -27.        0.0
  OSSO-CUT-1         873         4.       -17.        0.0         4.       -17.        0.0
  OSSO-CUT-1         874         4.       -13.        0.0         4.       -13.        0.0
  OSSO-CUT-1         875        13.       -10.        0.0        13.       -10.        0.0
  OSSO-CUT-1         876        16.        -9.        0.0        16.        -9.        0.0
  OSSO-CUT-1         877        15.       -23.        0.0        15.       -23.        0.0
  OSSO-CUT-1         878         2.    25.E-03        0.0         2.    25.E-03        0.0
  OSSO-CUT-1         879        -1.         4.        0.0        -1.         4.        0.0
  OSSO-CUT-1         880        18.       -10.        0.0        18.       -10.        0.0
  OSSO-CUT-1         881        22.        -9.        0.0        22.        -9.        0.0
  OSSO-CUT-1         882    86.E-03         2.        0.0    89.E-03         2.        0.0
  OSSO-CUT-1         883        22.        23.        0.0        22.        23.        0.0
  OSSO-CUT-1         884        14.       -19.        0.0        14.       -19.        0.0
  OSSO-CUT-1         885        16.       -17.        0.0        16.       -17.        0.0
  OSSO-CUT-1         886        20.        -5.        0.0        20.        -5.        0.0
  OSSO-CUT-1         887        18.        25.        0.0        18.        25.        0.0
  OSSO-CUT-1         888         2.       -29.        0.0         2.       -29.        0.0
  OSSO-CUT-1         889        14.       -35.        0.0        14.       -35.        0.0
  OSSO-CUT-1         890        21.        28.        0.0        21.        28.        0.0
  OSSO-CUT-1         891        19.        31.        0.0        19.        31.        0.0
  OSSO-CUT-1         892        20.        25.        0.0        20.        25.        0.0
  OSSO-CUT-1         893         6.        -1.        0.0         6.        -1.        0.0
  OSSO-CUT-1         894         6.        -4.        0.0         6.        -4.        0.0
  OSSO-CUT-1         895        18.       -27.        0.0        18.       -27.        0.0
  OSSO-CUT-1         896        17.       -15.        0.0        17.       -15.        0.0
  OSSO-CUT-1         897         6.       -14.        0.0         6.       -14.        0.0
  OSSO-CUT-1         898        22.       -17.        0.0        22.       -17.        0.0
  OSSO-CUT-1         899         4.        -2.        0.0         4.        -2.        0.0
  OSSO-CUT-1         900        20.       -12.        0.0        20.       -12.        0.0
  OSSO-CUT-1         901        20.        30.        0.0        20.        30.        0.0
  OSSO-CUT-1         902         3.       -19.        0.0         3.       -19.        0.0
  OSSO-CUT-1         903         3.        -7.        0.0         3.        -7.        0.0
  OSSO-CUT-1         904        -5.         5.        0.0        -5.         5.        0.0
  OSSO-CUT-1         905        23.        29.        0.0        23.        29.        0.0
  OSSO-CUT-1         906        12.        -9.        0.0        12.        -9.        0.0
  OSSO-CUT-1         907        15.       -10.        0.0        15.       -10.        0.0
  OSSO-CUT-1         908         6.        -2.        0.0         6.        -2.        0.0
  OSSO-CUT-1         909        -9.         3.        0.0        -9.         3.        0.0
  OSSO-CUT-1         910         4.       -28.        0.0         4.       -28.        0.0
  OSSO-CUT-1         911         2.       -27.        0.0         2.       -27.        0.0
  OSSO-CUT-1         912   603.E-03   305.E-03        0.0   605.E-03   304.E-03        0.0
  OSSO-CUT-1         913        21.        26.        0.0        21.        26.        0.0
  OSSO-CUT-1         914        25.        27.        0.0        25.        27.        0.0
  OSSO-CUT-1         915        13.       -30.        0.0        13.       -30.        0.0
  OSSO-CUT-1         916        -1.         5.        0.0        -1.         5.        0.0
  OSSO-CUT-1         917  -572.E-03   771.E-03        0.0  -569.E-03   771.E-03        0.0
  OSSO-CUT-1         918        14.       -21.        0.0        14.       -21.        0.0
  OSSO-CUT-1         919        23.       -11.        0.0        23.       -11.        0.0
  OSSO-CUT-1         920        22.        27.        0.0        22.        27.        0.0
  OSSO-CUT-1         921         8.        -7.        0.0         8.        -7.        0.0
  OSSO-CUT-1         922        25.        33.        0.0        25.        33.        0.0
  OSSO-CUT-1         923        21.        30.        0.0        21.        30.        0.0
  OSSO-CUT-1         924         2.       -34.        0.0         2.       -34.        0.0
  OSSO-CUT-1         925        17.        -9.        0.0        17.        -9.        0.0
  OSSO-CUT-1         926         3.       -12.        0.0         3.       -12.        0.0
  OSSO-CUT-1         927        -2.         6.        0.0        -2.         6.        0.0
  OSSO-CUT-1         928        13.       -19.        0.0        13.       -19.        0.0
  OSSO-CUT-1         929        15.       -39.        0.0        15.       -39.        0.0
  OSSO-CUT-1         930        10.        -7.        0.0        10.        -7.        0.0
  OSSO-CUT-1         931         5.       -13.        0.0         5.       -13.        0.0
  OSSO-CUT-1         932         4.       -20.        0.0         4.       -20.        0.0
  OSSO-CUT-1         933         3.       -27.        0.0         3.       -27.        0.0
  OSSO-CUT-1         934         5.       -28.        0.0         5.       -28.        0.0
  OSSO-CUT-1         935         3.       -20.        0.0         3.       -20.        0.0
  OSSO-CUT-1         936         3.        -9.        0.0         3.        -9.        0.0
  OSSO-CUT-1         937        16.       -13.        0.0        16.       -13.        0.0
  OSSO-CUT-1         938        10.        -9.        0.0        10.        -9.        0.0
  OSSO-CUT-1         939         7.        -4.        0.0         7.        -4.        0.0
  OSSO-CUT-1         940        14.       -16.        0.0        14.       -16.        0.0
  OSSO-CUT-1         941        16.       -12.        0.0        16.       -12.        0.0
  OSSO-CUT-1         942         2.        -7.        0.0         2.        -7.        0.0
  OSSO-CUT-1         943         2.       -10.        0.0         2.       -10.        0.0
  OSSO-CUT-1         944         6.        -5.        0.0         6.        -5.        0.0
  OSSO-CUT-1         945        19.       -11.        0.0        19.       -11.        0.0
  OSSO-CUT-1         946         7.       -15.        0.0         7.       -15.        0.0
  OSSO-CUT-1         947        20.       -13.        0.0        20.       -13.        0.0
  OSSO-CUT-1         948        21.       -12.        0.0        21.       -12.        0.0
  OSSO-CUT-1         949         3.       -28.        0.0         3.       -28.        0.0
  OSSO-CUT-1         950        12.       -32.        0.0        12.       -32.        0.0
  OSSO-CUT-1         951        14.       -28.        0.0        14.       -28.        0.0
  OSSO-CUT-1         952         7.        -7.        0.0         7.        -7.        0.0
  OSSO-CUT-1         953  -359.E-03         7.        0.0  -356.E-03         7.        0.0
  OSSO-CUT-1         954        13.       -20.        0.0        13.       -20.        0.0
  OSSO-CUT-1         955  -872.E-03         6.        0.0  -869.E-03         6.        0.0
  OSSO-CUT-1         956         4.       -26.        0.0         4.       -26.        0.0
  OSSO-CUT-1         957        19.       -12.        0.0        19.       -12.        0.0
  OSSO-CUT-1         958         5.       -18.        0.0         5.       -18.        0.0
  OSSO-CUT-1         959         2.        -9.        0.0         2.        -9.        0.0
  OSSO-CUT-1         960         7.       -31.        0.0         7.       -31.        0.0
  OSSO-CUT-1         961         2.       -21.        0.0         2.       -21.        0.0
  OSSO-CUT-1         962        17.       -12.        0.0        17.       -12.        0.0
  OSSO-CUT-1         963         9.        -8.        0.0         9.        -8.        0.0
  OSSO-CUT-1         964        13.       -17.        0.0        13.       -17.        0.0
  OSSO-CUT-1         965         4.       -11.        0.0         4.       -11.        0.0
  OSSO-CUT-1         966        15.       -12.        0.0        15.       -12.        0.0
  OSSO-CUT-1         967         6.       -17.        0.0         6.       -17.        0.0
  OSSO-CUT-1         968        23.       -12.        0.0        23.       -12.        0.0
  OSSO-CUT-1         969        13.       -21.        0.0        13.       -21.        0.0
  OSSO-CUT-1         970         5.       -19.        0.0         5.       -19.        0.0
  OSSO-CUT-1         971         6.        -6.        0.0         6.        -6.        0.0
  OSSO-CUT-1         972        12.       -28.        0.0        12.       -28.        0.0
  OSSO-CUT-1         973         4.       -10.        0.0         4.       -10.        0.0
  OSSO-CUT-1         974         6.       -18.        0.0         6.       -18.        0.0
  OSSO-CUT-1         975        10.       -28.        0.0        10.       -28.        0.0
  OSSO-CUT-1         976         6.       -31.        0.0         6.       -31.        0.0
  OSSO-CUT-1         977         7.       -28.        0.0         7.       -28.        0.0
  OSSO-CUT-1         978   328.E-03       -22.        0.0   329.E-03       -22.        0.0
  OSSO-CUT-1         979         3.       -22.        0.0         3.       -22.        0.0
  OSSO-CUT-1         980         5.       -25.        0.0         5.       -25.        0.0
  OSSO-CUT-1         981        12.       -15.        0.0        12.       -15.        0.0
  OSSO-CUT-1         982        12.       -12.        0.0        12.       -12.        0.0
  OSSO-CUT-1         983         6.       -20.        0.0         6.       -20.        0.0
  OSSO-CUT-1         984        13.       -13.        0.0        13.       -13.        0.0
  OSSO-CUT-1         985   540.E-03       -28.        0.0   541.E-03       -28.        0.0
  OSSO-CUT-1         986        13.       -23.        0.0        13.       -23.        0.0
  OSSO-CUT-1         987        17.       -10.        0.0        17.       -10.        0.0
  OSSO-CUT-1         988         8.        -9.        0.0         8.        -9.        0.0
  OSSO-CUT-1         989   782.E-03         7.        0.0   785.E-03         7.        0.0
  OSSO-CUT-1         990        11.       -31.        0.0        11.       -31.        0.0
  OSSO-CUT-1         991        13.       -33.        0.0        13.       -33.        0.0
  OSSO-CUT-1         992         3.       -25.        0.0         3.       -25.        0.0
  OSSO-CUT-1         993        16.       -13.        0.0        16.       -13.        0.0
  OSSO-CUT-1         994         9.       -10.        0.0         9.       -10.        0.0
  OSSO-CUT-1         995        11.       -13.        0.0        11.       -13.        0.0
  OSSO-CUT-1         996         7.       -10.        0.0         7.       -10.        0.0
  OSSO-CUT-1         997        14.       -24.        0.0        14.       -24.        0.0
  OSSO-CUT-1         998         3.        -8.        0.0         3.        -8.        0.0
  OSSO-CUT-1         999         9.       -30.        0.0         9.       -30.        0.0
  OSSO-CUT-1        1000         5.       -32.        0.0         5.       -32.        0.0
  OSSO-CUT-1        1001        13.       -15.        0.0        13.       -15.        0.0
  OSSO-CUT-1        1002         2.       -23.        0.0         2.       -23.        0.0
  OSSO-CUT-1        1003         5.       -26.        0.0         5.       -26.        0.0
  OSSO-CUT-1        1004   261.E-03       -20.        0.0   262.E-03       -20.        0.0
  OSSO-CUT-1        1005         6.       -21.        0.0         6.       -21.        0.0
  OSSO-CUT-1        1006         6.       -13.        0.0         6.       -13.        0.0
  OSSO-CUT-1        1007         4.       -24.        0.0         4.       -24.        0.0
  OSSO-CUT-1        1008   660.E-03       -26.        0.0   661.E-03       -26.        0.0
  OSSO-CUT-1        1009  -635.E-03       -29.        0.0  -634.E-03       -29.        0.0
  OSSO-CUT-1        1010        12.       -18.        0.0        12.       -18.        0.0
  OSSO-CUT-1        1011         3.         7.        0.0         3.         7.        0.0
  OSSO-CUT-1        1012         6.       -27.        0.0         6.       -27.        0.0
  OSSO-CUT-1        1013        14.       -25.        0.0        14.       -25.        0.0
  OSSO-CUT-1        1014        10.       -33.        0.0        10.       -33.        0.0
  OSSO-CUT-1        1015        25.       -10.        0.0        25.       -10.        0.0
  OSSO-CUT-1        1016        13.       -24.        0.0        13.       -24.        0.0
  OSSO-CUT-1        1017         6.        -8.        0.0         6.        -8.        0.0
  OSSO-CUT-1        1018        16.       -15.        0.0        16.       -15.        0.0
  OSSO-CUT-1        1019         6.       -22.        0.0         6.       -22.        0.0
  OSSO-CUT-1        1020        10.       -19.        0.0        10.       -19.        0.0
  OSSO-CUT-1        1021         8.       -32.        0.0         8.       -32.        0.0
  OSSO-CUT-1        1022         7.       -32.        0.0         7.       -32.        0.0
  OSSO-CUT-1        1023        -1.       -22.        0.0        -1.       -22.        0.0
  OSSO-CUT-1        1024        10.       -12.        0.0        10.       -12.        0.0
  OSSO-CUT-1        1025         9.       -12.        0.0         9.       -12.        0.0
  OSSO-CUT-1        1026         6.       -24.        0.0         6.       -24.        0.0
  OSSO-CUT-1        1027         7.       -13.        0.0         7.       -13.        0.0
  OSSO-CUT-1        1028         6.       -10.        0.0         6.       -10.        0.0
  OSSO-CUT-1        1029        -2.       -26.        0.0        -2.       -26.        0.0
  OSSO-CUT-1        1030         2.       -23.        0.0         2.       -23.        0.0
  OSSO-CUT-1        1031        24.       -13.        0.0        24.       -13.        0.0
  OSSO-CUT-1        1032  -785.E-03       -26.        0.0  -784.E-03       -26.        0.0
  OSSO-CUT-1        1033         8.       -24.        0.0         8.       -24.        0.0
  OSSO-CUT-1        1034         7.       -23.        0.0         7.       -23.        0.0
  OSSO-CUT-1        1035  -741.E-03       -24.        0.0  -740.E-03       -24.        0.0
  OSSO-CUT-1        1036        11.       -24.        0.0        11.       -24.        0.0
  OSSO-CUT-1        1037         5.        -7.        0.0         5.        -7.        0.0
  OSSO-CUT-1        1038         8.       -30.        0.0         8.       -30.        0.0
  OSSO-CUT-1        1039        10.       -27.        0.0        10.       -27.        0.0
  OSSO-CUT-1        1040        -2.       -23.        0.0        -2.       -23.        0.0
  OSSO-CUT-1        1041        10.       -17.        0.0        10.       -17.        0.0
  OSSO-CUT-1        1042         9.       -31.        0.0         9.       -31.        0.0
  OSSO-CUT-1        1043         9.       -15.        0.0         9.       -15.        0.0
  OSSO-CUT-1        1044         9.       -20.        0.0         9.       -20.        0.0
  OSSO-CUT-1        1045        10.       -23.        0.0        10.       -23.        0.0
  OSSO-CUT-1        1046   503.E-03       -23.        0.0   504.E-03       -23.        0.0
  OSSO-CUT-1        1047        10.       -21.        0.0        10.       -21.        0.0
  OSSO-CUT-1        1048         8.       -19.        0.0         8.       -19.        0.0
  OSSO-CUT-1        1049        10.       -25.        0.0        10.       -25.        0.0
  OSSO-CUT-1        1050         7.       -27.        0.0         7.       -27.        0.0
  OSSO-CUT-1        1051        11.       -25.        0.0        11.       -25.        0.0
  OSSO-CUT-1        1052        10.       -22.        0.0        10.       -22.        0.0
  OSSO-CUT-1        1053         9.       -16.        0.0         9.       -16.        0.0
  OSSO-CUT-1        1054         8.       -15.        0.0         8.       -15.        0.0
  OSSO-CUT-1        1055         9.       -21.        0.0         9.       -21.        0.0
  OSSO-CUT-1        1056        10.       -16.        0.0        10.       -16.        0.0
  OSSO-CUT-1        1057         7.       -19.        0.0         7.       -19.        0.0
  OSSO-CUT-1        1058        11.       -21.        0.0        11.       -21.        0.0
  OSSO-CUT-1        1059         7.       -22.        0.0         7.       -22.        0.0
  OSSO-CUT-1        1060         9.       -22.        0.0         9.       -22.        0.0
  OSSO-CUT-1        1061       -10.         9.        0.0       -10.         9.        0.0
  OSSO-CUT-1        1062         2.        -3.        0.0         2.        -3.        0.0
  OSSO-CUT-1        1063        26.        21.        0.0        26.        21.        0.0
  OSSO-CUT-1        1064       -13.         7.        0.0       -13.         7.        0.0
  OSSO-CUT-1        1065   108.E-03  -879.E-03        0.0   111.E-03  -879.E-03        0.0
  OSSO-CUT-1        1066        26.        13.        0.0        26.        13.        0.0
  OSSO-CUT-1        1067        11.       -10.        0.0        11.       -10.        0.0
  OSSO-CUT-1        1068        17.        31.        0.0        17.        31.        0.0
  OSSO-CUT-1        1069         7.  -649.E-03        0.0         7.  -649.E-03        0.0
  OSSO-CUT-1        1070        12.       -20.        0.0        12.       -20.        0.0
  OSSO-CUT-1        1071        21.       -28.        0.0        21.       -28.        0.0
  OSSO-CUT-1        1072        27.        35.        0.0        27.        35.        0.0
  OSSO-CUT-1        1073        21.       -41.        0.0        21.       -41.        0.0
  OSSO-CUT-1        1074        12.        31.        0.0        12.        31.        0.0
  OSSO-CUT-1        1075        14.        -4.        0.0        14.        -4.        0.0
  OSSO-CUT-1        1076        -2.       -32.        0.0        -2.       -32.        0.0
  OSSO-CUT-1        1077        28.        11.        0.0        28.        11.        0.0
  OSSO-CUT-1        1078        27.         8.        0.0        27.         8.        0.0
  OSSO-CUT-1        1079  -972.E-03       -34.        0.0  -972.E-03       -34.        0.0
  OSSO-CUT-1        1080        25.   326.E-03        0.0        25.   324.E-03        0.0
  OSSO-CUT-1        1081        -5.  -364.E-03        0.0        -5.  -365.E-03        0.0
  OSSO-CUT-1        1082        30.        33.        0.0        30.        33.        0.0
  OSSO-CUT-1        1083         3.         5.        0.0         3.         5.        0.0
  OSSO-CUT-1        1084         5.         3.        0.0         5.         3.        0.0
  OSSO-CUT-1        1085   469.E-03       -27.        0.0   470.E-03       -27.        0.0
  OSSO-CUT-1        1086  -364.E-03        -2.        0.0  -361.E-03        -2.        0.0
  OSSO-CUT-1        1087        -3.         8.        0.0        -3.         8.        0.0
  OSSO-CUT-1        1088   497.E-03       -33.        0.0   497.E-03       -33.        0.0
  OSSO-CUT-1        1089        24.         2.        0.0        24.         2.        0.0
  OSSO-CUT-1        1090        27.        16.        0.0        27.        16.        0.0
  OSSO-CUT-1        1091        24.        -1.        0.0        24.        -1.        0.0
  OSSO-CUT-1        1092        -7.         8.        0.0        -7.         8.        0.0
  OSSO-CUT-1        1093         3.       -39.        0.0         3.       -39.        0.0
  OSSO-CUT-1        1094        -7.         6.        0.0        -7.         6.        0.0
  OSSO-CUT-1        1095        21.        37.        0.0        21.        37.        0.0
  OSSO-CUT-1        1096        14.       -38.        0.0        14.       -38.        0.0
  OSSO-CUT-1        1097        13.       -38.        0.0        13.       -38.        0.0
  OSSO-CUT-1        1098         1.       -35.        0.0         1.       -35.        0.0
  OSSO-CUT-1        1099         1.       -36.        0.0         1.       -36.        0.0
  OSSO-CUT-1        1100         2.       -36.        0.0         2.       -36.        0.0
  OSSO-CUT-1        1101         2.       -18.        0.0         2.       -18.        0.0
  OSSO-CUT-1        1102         1.       -28.        0.0         1.       -28.        0.0
  OSSO-CUT-1        1103         3.       -29.        0.0         3.       -29.        0.0
  OSSO-CUT-1        1104   852.E-03       -10.        0.0   854.E-03       -10.        0.0
  OSSO-CUT-1        1105   572.E-03        -4.        0.0   575.E-03        -4.        0.0
  OSSO-CUT-1        1106   128.E-03         5.        0.0   131.E-03         5.        0.0
  OSSO-CUT-1        1107         1.         5.        0.0         1.         5.        0.0
  OSSO-CUT-1        1108         3.         3.        0.0         3.         3.        0.0
  OSSO-CUT-1        1109         4.         1.        0.0         4.         1.        0.0
  OSSO-CUT-1        1110        22.        37.        0.0        22.        37.        0.0
  OSSO-CUT-1        1111         3.       -36.        0.0         3.       -36.        0.0
  OSSO-CUT-1        1112        23.        -1.        0.0        23.        -1.        0.0
  OSSO-CUT-1        1113        27.        16.        0.0        27.        16.        0.0
  OSSO-CUT-1        1114         4.       -30.        0.0         4.       -30.        0.0
  OSSO-CUT-1        1115        -6.         5.        0.0        -6.         5.        0.0
  OSSO-CUT-1        1116        23.        -6.        0.0        23.        -6.        0.0
  OSSO-CUT-1        1117        22.        -5.        0.0        22.        -5.        0.0
  OSSO-CUT-1        1118        28.        22.        0.0        28.        22.        0.0
  OSSO-CUT-1        1119        22.        35.        0.0        22.        35.        0.0
  OSSO-CUT-1        1120         4.       -38.        0.0         4.       -38.        0.0
  OSSO-CUT-1        1121        28.        25.        0.0        28.        25.        0.0
  OSSO-CUT-1        1122        28.        24.        0.0        28.        24.        0.0
  OSSO-CUT-1        1123        21.        23.        0.0        21.        23.        0.0
  OSSO-CUT-1        1124        21.       -13.        0.0        21.       -13.        0.0
  OSSO-CUT-1        1125        24.        34.        0.0        24.        34.        0.0
  OSSO-CUT-1        1126         2.        -2.        0.0         2.        -2.        0.0
  OSSO-CUT-1        1127        -2.         5.        0.0        -2.         5.        0.0
  OSSO-CUT-1        1128  -514.E-03         4.        0.0  -511.E-03         4.        0.0
  OSSO-CUT-1        1129         1.         3.        0.0         1.         3.        0.0
  OSSO-CUT-1        1130         3.         1.        0.0         3.         1.        0.0
  OSSO-CUT-1        1131         4.  -413.E-03        0.0         4.  -413.E-03        0.0
  OSSO-CUT-1        1132         5.        -2.        0.0         5.        -2.        0.0
  OSSO-CUT-1        1133        25.        20.        0.0        25.        20.        0.0
  OSSO-CUT-1        1134        22.        30.        0.0        22.        30.        0.0
  OSSO-CUT-1        1135        23.        31.        0.0        23.        31.        0.0
  OSSO-CUT-1        1136        -4.         4.        0.0        -4.         4.        0.0
  OSSO-CUT-1        1137        20.       -27.        0.0        20.       -27.        0.0
  OSSO-CUT-1        1138        15.       -36.        0.0        15.       -36.        0.0
  OSSO-CUT-1        1139        13.       -36.        0.0        13.       -36.        0.0
  OSSO-CUT-1        1140        21.        -5.        0.0        21.        -5.        0.0
  OSSO-CUT-1        1141         5.       -29.        0.0         5.       -29.        0.0
  OSSO-CUT-1        1142         2.       -35.        0.0         2.       -35.        0.0
  OSSO-CUT-1        1143        12.       -37.        0.0        12.       -37.        0.0
  OSSO-CUT-1        1144        12.       -37.        0.0        12.       -37.        0.0
  OSSO-CUT-1        1145        14.        -9.        0.0        14.        -9.        0.0
  OSSO-CUT-1        1146        12.       -11.        0.0        12.       -11.        0.0
  OSSO-CUT-1        1147   870.E-03         1.        0.0   872.E-03         1.        0.0
  OSSO-CUT-1        1148        20.       -10.        0.0        20.       -10.        0.0
  OSSO-CUT-1        1149        21.        25.        0.0        21.        25.        0.0
  OSSO-CUT-1        1150         6.       -30.        0.0         6.       -30.        0.0
  OSSO-CUT-1        1151         4.       -12.        0.0         4.       -12.        0.0
  OSSO-CUT-1        1152        20.        -8.        0.0        20.        -8.        0.0
  OSSO-CUT-1        1153         3.        -3.        0.0         3.        -3.        0.0
  OSSO-CUT-1        1154         3.        -4.        0.0         3.        -4.        0.0
  OSSO-CUT-1        1155        18.       -33.        0.0        18.       -33.        0.0
  OSSO-CUT-1        1156        -2.         4.        0.0        -2.         4.        0.0
  OSSO-CUT-1        1157        21.        -7.        0.0        21.        -7.        0.0
  OSSO-CUT-1        1158        13.       -11.        0.0        13.       -11.        0.0
  OSSO-CUT-1        1159        12.       -36.        0.0        12.       -36.        0.0
  OSSO-CUT-1        1160         6.       -29.        0.0         6.       -29.        0.0
  OSSO-CUT-1        1161         3.        -9.        0.0         3.        -9.        0.0
  OSSO-CUT-1        1162        10.       -11.        0.0        10.       -11.        0.0
  OSSO-CUT-1        1163        20.       -11.        0.0        20.       -11.        0.0
  OSSO-CUT-1        1164        19.       -13.        0.0        19.       -13.        0.0
  OSSO-CUT-1        1165        27.        27.        0.0        27.        27.        0.0
  OSSO-CUT-1        1166        18.       -12.        0.0        18.       -12.        0.0
  OSSO-CUT-1        1167        19.       -17.        0.0        19.       -17.        0.0
  OSSO-CUT-1        1168        25.        21.        0.0        25.        21.        0.0
  OSSO-CUT-1        1169        25.        31.        0.0        25.        31.        0.0
  OSSO-CUT-1        1170         4.       -26.        0.0         4.       -26.        0.0
  OSSO-CUT-1        1171         7.       -26.        0.0         7.       -26.        0.0
  OSSO-CUT-1        1172         8.       -26.        0.0         8.       -26.        0.0
  OSSO-CUT-1        1173        24.        25.        0.0        24.        25.        0.0
  OSSO-CUT-1        1174        23.        25.        0.0        23.        25.        0.0
  OSSO-CUT-1        1175        23.        26.        0.0        23.        26.        0.0
  OSSO-CUT-1        1176         4.       -34.        0.0         4.       -34.        0.0
  OSSO-CUT-1        1177         5.       -34.        0.0         5.       -34.        0.0
  OSSO-CUT-1        1178         6.       -33.        0.0         6.       -33.        0.0
  OSSO-CUT-1        1179        26.        22.        0.0        26.        22.        0.0
  OSSO-CUT-1        1180        14.       -12.        0.0        14.       -12.        0.0
  OSSO-CUT-1        1181         6.       -12.        0.0         6.       -12.        0.0
  OSSO-CUT-1        1182         6.       -11.        0.0         6.       -11.        0.0
  OSSO-CUT-1        1183         5.       -10.        0.0         5.       -10.        0.0
  OSSO-CUT-1        1184         6.       -36.        0.0         6.       -36.        0.0
  OSSO-CUT-1        1185        18.       -13.        0.0        18.       -13.        0.0
  OSSO-CUT-1        1186         6.        -9.        0.0         6.        -9.        0.0
  OSSO-CUT-1        1187         8.       -31.        0.0         8.       -31.        0.0
  OSSO-CUT-1        1188        25.        30.        0.0        25.        30.        0.0
  OSSO-CUT-1        1189        14.       -34.        0.0        14.       -34.        0.0
  OSSO-CUT-1        1190        26.        26.        0.0        26.        26.        0.0
  OSSO-CUT-1        1191        26.        25.        0.0        26.        25.        0.0
  OSSO-CUT-1        1192        10.       -13.        0.0        10.       -13.        0.0
  OSSO-CUT-1        1193         8.       -35.        0.0         8.       -35.        0.0
  OSSO-CUT-1        1194        16.       -18.        0.0        16.       -18.        0.0
  OSSO-CUT-1        1195        10.       -26.        0.0        10.       -26.        0.0
  OSSO-CUT-1        1196         6.       -28.        0.0         6.       -28.        0.0
  OSSO-CUT-1        1197         7.       -16.        0.0         7.       -16.        0.0
  OSSO-CUT-1        1198        12.       -14.        0.0        12.       -14.        0.0
  OSSO-CUT-1        1199        25.        29.        0.0        25.        29.        0.0
  OSSO-CUT-1        1200        15.       -13.        0.0        15.       -13.        0.0
  OSSO-CUT-1        1201         4.        -8.        0.0         4.        -8.        0.0
  OSSO-CUT-1        1202         7.       -18.        0.0         7.       -18.        0.0
  OSSO-CUT-1        1203        15.       -32.        0.0        15.       -32.        0.0
  OSSO-CUT-1        1204         9.       -13.        0.0         9.       -13.        0.0
  OSSO-CUT-1        1205        10.       -31.        0.0        10.       -31.        0.0
  OSSO-CUT-1        1206         8.       -34.        0.0         8.       -34.        0.0
  OSSO-CUT-1        1207        12.       -33.        0.0        12.       -33.        0.0
  OSSO-CUT-1        1208        11.       -26.        0.0        11.       -26.        0.0
  OSSO-CUT-1        1209        14.       -14.        0.0        14.       -14.        0.0
  OSSO-CUT-1        1210        14.       -13.        0.0        14.       -13.        0.0
  OSSO-CUT-1        1211        12.       -16.        0.0        12.       -16.        0.0
  OSSO-CUT-1        1212         8.       -18.        0.0         8.       -18.        0.0
  OSSO-CUT-1        1213         9.       -18.        0.0         9.       -18.        0.0
  OSSO-CUT-1        1214         8.       -14.        0.0         8.       -14.        0.0
  OSSO-CUT-1        1215        17.       -20.        0.0        17.       -20.        0.0
  OSSO-CUT-1        1216        16.       -21.        0.0        16.       -21.        0.0
  OSSO-CUT-1        1217        10.       -32.        0.0        10.       -32.        0.0
  OSSO-CUT-1        1218         9.       -29.        0.0         9.       -29.        0.0
  OSSO-CUT-1        1219        12.       -25.        0.0        12.       -25.        0.0
  OSSO-CUT-1        1220        14.       -29.        0.0        14.       -29.        0.0
  OSSO-CUT-1        1221        12.       -17.        0.0        12.       -17.        0.0
  OSSO-CUT-1        1222        12.       -31.        0.0        12.       -31.        0.0
  OSSO-CUT-1        1223        16.       -30.        0.0        16.       -30.        0.0
  OSSO-CUT-1        1224        15.       -27.        0.0        15.       -27.        0.0
  OSSO-CUT-1        1225        14.       -22.        0.0        14.       -22.        0.0
  OSSO-CUT-1        1226        14.       -31.        0.0        14.       -31.        0.0
  OSSO-CUT-1        1227        13.       -16.        0.0        13.       -16.        0.0
  OSSO-CUT-1        1228        14.       -27.        0.0        14.       -27.        0.0
  OSSO-CUT-1        1229        20.        40.        0.0        20.        40.        0.0
  OSSO-CUT-1        1230        19.        40.        0.0        19.        40.        0.0
  OSSO-CUT-1        1231        19.        39.        0.0        19.        39.        0.0
  OSSO-CUT-1        1232        20.        39.        0.0        20.        39.        0.0
  OSSO-CUT-1        1233        22.        34.        0.0        22.        34.        0.0
  OSSO-CUT-1        1234        22.        35.        0.0        22.        35.        0.0
  OSSO-CUT-1        1235        22.        35.        0.0        22.        35.        0.0
  OSSO-CUT-1        1236        22.        34.        0.0        22.        34.        0.0
  OSSO-CUT-1        1237        27.        31.        0.0        27.        31.        0.0
  OSSO-CUT-1        1238        26.        31.        0.0        26.        31.        0.0
  OSSO-CUT-1        1239        26.        30.        0.0        26.        30.        0.0
  OSSO-CUT-1        1240        26.        30.        0.0        26.        30.        0.0
  OSSO-CUT-1        1241        30.        29.        0.0        30.        29.        0.0
  OSSO-CUT-1        1242        29.        29.        0.0        29.        29.        0.0
  OSSO-CUT-1        1243        28.        29.        0.0        28.        29.        0.0
  OSSO-CUT-1        1244        29.        28.        0.0        29.        28.        0.0
  OSSO-CUT-1        1245        30.        25.        0.0        30.        25.        0.0
  OSSO-CUT-1        1246        31.        26.        0.0        31.        26.        0.0
  OSSO-CUT-1        1247        31.        27.        0.0        31.        27.        0.0
  OSSO-CUT-1        1248        30.        26.        0.0        30.        26.        0.0
  OSSO-CUT-1        1249        32.        29.        0.0        32.        29.        0.0
  OSSO-CUT-1        1250        32.        28.        0.0        32.        28.        0.0
  OSSO-CUT-1        1251        33.        29.        0.0        33.        29.        0.0
  OSSO-CUT-1        1252        32.        30.        0.0        32.        30.        0.0
  OSSO-CUT-1        1253        31.        29.        0.0        31.        29.        0.0
  OSSO-CUT-1        1254        31.        28.        0.0        31.        28.        0.0
  OSSO-CUT-1        1255        31.        32.        0.0        31.        32.        0.0
  OSSO-CUT-1        1256        30.        31.        0.0        30.        31.        0.0
  OSSO-CUT-1        1257        31.        31.        0.0        31.        31.        0.0
  OSSO-CUT-1        1258        31.        32.        0.0        31.        32.        0.0
  OSSO-CUT-1        1259        30.        34.        0.0        30.        34.        0.0
  OSSO-CUT-1        1260        29.        33.        0.0        29.        33.        0.0
  OSSO-CUT-1        1261        30.        33.        0.0        30.        33.        0.0
  OSSO-CUT-1        1262        31.        34.        0.0        31.        34.        0.0
  OSSO-CUT-1        1263        26.        36.        0.0        26.        36.        0.0
  OSSO-CUT-1        1264        26.        37.        0.0        26.        37.        0.0
  OSSO-CUT-1        1265        25.        37.        0.0        25.        37.        0.0
  OSSO-CUT-1        1266        25.        36.        0.0        25.        36.        0.0
  OSSO-CUT-1        1267        23.        40.        0.0        23.        40.        0.0
  OSSO-CUT-1        1268        23.        39.        0.0        23.        39.        0.0
  OSSO-CUT-1        1269        24.        39.        0.0        24.        39.        0.0
  OSSO-CUT-1        1270        24.        40.        0.0        24.        40.        0.0
  OSSO-CUT-1        1271        22.        40.        0.0        22.        40.        0.0
  OSSO-CUT-1        1272        22.        39.        0.0        22.        39.        0.0
  OSSO-CUT-1        1273        23.        40.        0.0        23.        40.        0.0
  OSSO-CUT-1        1274        19.        41.        0.0        19.        41.        0.0
  OSSO-CUT-1        1275        19.        41.        0.0        19.        41.        0.0
  OSSO-CUT-1        1276        20.        41.        0.0        20.        41.        0.0
  OSSO-CUT-1        1277        20.        42.        0.0        20.        42.        0.0
  OSSO-CUT-1        1278        15.        38.        0.0        15.        38.        0.0
  OSSO-CUT-1        1279        15.        39.        0.0        15.        39.        0.0
  OSSO-CUT-1        1280        14.        39.        0.0        14.        39.        0.0
  OSSO-CUT-1        1281        14.        38.        0.0        14.        38.        0.0
  OSSO-CUT-1        1282        13.        36.        0.0        13.        36.        0.0
  OSSO-CUT-1        1283        13.        35.        0.0        13.        35.        0.0
  OSSO-CUT-1        1284        14.        35.        0.0        14.        35.        0.0
  OSSO-CUT-1        1285        14.        36.        0.0        14.        36.        0.0
  OSSO-CUT-1        1286        15.        35.        0.0        15.        35.        0.0
  OSSO-CUT-1        1287        14.        34.        0.0        14.        34.        0.0
  OSSO-CUT-1        1288        15.        34.        0.0        15.        34.        0.0
  OSSO-CUT-1        1289        20.        36.        0.0        20.        36.        0.0
  OSSO-CUT-1        1290        20.        35.        0.0        20.        35.        0.0
  OSSO-CUT-1        1291        21.        36.        0.0        21.        36.        0.0
  OSSO-CUT-1        1292        21.        36.        0.0        21.        36.        0.0
  OSSO-CUT-1        1293        15.        36.        0.0        15.        36.        0.0
  OSSO-CUT-1        1294        15.        37.        0.0        15.        37.        0.0
  OSSO-CUT-1        1295        14.        37.        0.0        14.        37.        0.0
  OSSO-CUT-1        1296        18.        40.        0.0        18.        40.        0.0
  OSSO-CUT-1        1297        18.        40.        0.0        18.        40.        0.0
  OSSO-CUT-1        1298        11.        29.        0.0        11.        29.        0.0
  OSSO-CUT-1        1299        12.        29.        0.0        12.        29.        0.0
  OSSO-CUT-1        1300        12.        30.        0.0        12.        30.        0.0
  OSSO-CUT-1        1301        11.        30.        0.0        11.        30.        0.0
  OSSO-CUT-1        1302        11.        28.        0.0        11.        28.        0.0
  OSSO-CUT-1        1303        10.        29.        0.0        10.        29.        0.0
  OSSO-CUT-1        1304        10.        28.        0.0        10.        28.        0.0
  OSSO-CUT-1        1305        17.        26.        0.0        17.        26.        0.0
  OSSO-CUT-1        1306        18.        28.        0.0        18.        28.        0.0
  OSSO-CUT-1        1307        16.        28.        0.0        16.        28.        0.0
  OSSO-CUT-1        1308        16.        27.        0.0        16.        27.        0.0
  OSSO-CUT-1        1309        18.        29.        0.0        18.        29.        0.0
  OSSO-CUT-1        1310        18.        28.        0.0        18.        28.        0.0
  OSSO-CUT-1        1311        19.        29.        0.0        19.        29.        0.0
  OSSO-CUT-1        1312        19.        30.        0.0        19.        30.        0.0
  OSSO-CUT-1        1313        25.        28.        0.0        25.        28.        0.0
  OSSO-CUT-1        1314        26.        28.        0.0        26.        28.        0.0
  OSSO-CUT-1        1315        25.        29.        0.0        25.        29.        0.0
  OSSO-CUT-1        1316        25.        29.        0.0        25.        29.        0.0
  OSSO-CUT-1        1317        26.        29.        0.0        26.        29.        0.0
  OSSO-CUT-1        1318        26.        29.        0.0        26.        29.        0.0
  OSSO-CUT-1        1319        27.        30.        0.0        27.        30.        0.0
  OSSO-CUT-1        1320        25.        31.        0.0        25.        31.        0.0
  OSSO-CUT-1        1321        24.        31.        0.0        24.        31.        0.0
  OSSO-CUT-1        1322        24.        30.        0.0        24.        30.        0.0
  OSSO-CUT-1        1323        25.        30.        0.0        25.        30.        0.0
  OSSO-CUT-1        1324        20.        30.        0.0        20.        30.        0.0
  OSSO-CUT-1        1325        20.        29.        0.0        20.        29.        0.0
  OSSO-CUT-1        1326        21.        29.        0.0        21.        29.        0.0
  OSSO-CUT-1        1327        21.        30.        0.0        21.        30.        0.0
  OSSO-CUT-1        1328        14.        31.        0.0        14.        31.        0.0
  OSSO-CUT-1        1329        14.        32.        0.0        14.        32.        0.0
  OSSO-CUT-1        1330        13.        32.        0.0        13.        32.        0.0
  OSSO-CUT-1        1331        13.        31.        0.0        13.        31.        0.0
  OSSO-CUT-1        1332        12.        33.        0.0        12.        33.        0.0
  OSSO-CUT-1        1333        12.        32.        0.0        12.        32.        0.0
  OSSO-CUT-1        1334        13.        33.        0.0        13.        33.        0.0
  OSSO-CUT-1        1335         8.        30.        0.0         8.        30.        0.0
  OSSO-CUT-1        1336         8.        29.        0.0         8.        29.        0.0
  OSSO-CUT-1        1337         9.        30.        0.0         9.        30.        0.0
  OSSO-CUT-1        1338         9.        30.        0.0         9.        30.        0.0
  OSSO-CUT-1        1339        10.        30.        0.0        10.        30.        0.0
  OSSO-CUT-1        1340         9.        29.        0.0         9.        29.        0.0
  OSSO-CUT-1        1341        -3.       -25.        0.0        -3.       -25.        0.0
  OSSO-CUT-1        1342        -4.       -25.        0.0        -4.       -25.        0.0
  OSSO-CUT-1        1343        -3.       -26.        0.0        -3.       -26.        0.0
  OSSO-CUT-1        1344        -2.       -25.        0.0        -2.       -25.        0.0
  OSSO-CUT-1        1345        -4.       -22.        0.0        -4.       -22.        0.0
  OSSO-CUT-1        1346        -3.       -23.        0.0        -3.       -23.        0.0
  OSSO-CUT-1        1347        -2.       -22.        0.0        -2.       -22.        0.0
  OSSO-CUT-1        1348        -3.       -22.        0.0        -3.       -22.        0.0
  OSSO-CUT-1        1349        -2.       -19.        0.0        -2.       -19.        0.0
  OSSO-CUT-1        1350        -1.       -18.        0.0        -1.       -18.        0.0
  OSSO-CUT-1        1351        -2.       -17.        0.0        -2.       -17.        0.0
  OSSO-CUT-1        1352        -2.       -18.        0.0        -2.       -18.        0.0
  OSSO-CUT-1        1353        -3.       -16.        0.0        -3.       -16.        0.0
  OSSO-CUT-1        1354        -3.       -15.        0.0        -3.       -15.        0.0
  OSSO-CUT-1        1355        -3.       -14.        0.0        -3.       -14.        0.0
  OSSO-CUT-1        1356        -4.       -15.        0.0        -4.       -15.        0.0
  OSSO-CUT-1        1357   -31.E-03       -13.        0.0   -29.E-03       -13.        0.0
  OSSO-CUT-1        1358        -1.       -13.        0.0        -1.       -13.        0.0
  OSSO-CUT-1        1359  -278.E-03       -14.        0.0  -277.E-03       -14.        0.0
  OSSO-CUT-1        1360   694.E-03       -14.        0.0   696.E-03       -14.        0.0
  OSSO-CUT-1        1361         4.       -13.        0.0         4.       -13.        0.0
  OSSO-CUT-1        1362         3.       -13.        0.0         3.       -13.        0.0
  OSSO-CUT-1        1363         3.       -13.        0.0         3.       -13.        0.0
  OSSO-CUT-1        1364         3.       -14.        0.0         3.       -14.        0.0
  OSSO-CUT-1        1365         6.       -13.        0.0         6.       -13.        0.0
  OSSO-CUT-1        1366         7.       -13.        0.0         7.       -13.        0.0
  OSSO-CUT-1        1367         6.       -12.        0.0         6.       -12.        0.0
  OSSO-CUT-1        1368         6.       -13.        0.0         6.       -13.        0.0
  OSSO-CUT-1        1369        10.       -13.        0.0        10.       -13.        0.0
  OSSO-CUT-1        1370        11.       -13.        0.0        11.       -13.        0.0
  OSSO-CUT-1        1371        11.       -12.        0.0        11.       -12.        0.0
  OSSO-CUT-1        1372        10.       -12.        0.0        10.       -12.        0.0
  OSSO-CUT-1        1373        14.       -13.        0.0        14.       -13.        0.0
  OSSO-CUT-1        1374        13.       -13.        0.0        13.       -13.        0.0
  OSSO-CUT-1        1375        13.       -14.        0.0        13.       -14.        0.0
  OSSO-CUT-1        1376        14.       -14.        0.0        14.       -14.        0.0
  OSSO-CUT-1        1377        15.       -12.        0.0        15.       -12.        0.0
  OSSO-CUT-1        1378        15.       -13.        0.0        15.       -13.        0.0
  OSSO-CUT-1        1379        16.       -12.        0.0        16.       -12.        0.0
  OSSO-CUT-1        1380        15.       -12.        0.0        15.       -12.        0.0
  OSSO-CUT-1        1381        20.       -12.        0.0        20.       -12.        0.0
  OSSO-CUT-1        1382        20.       -11.        0.0        20.       -11.        0.0
  OSSO-CUT-1        1383        19.       -12.        0.0        19.       -12.        0.0
  OSSO-CUT-1        1384        19.       -12.        0.0        19.       -12.        0.0
  OSSO-CUT-1        1385        22.       -11.        0.0        22.       -11.        0.0
  OSSO-CUT-1        1386        21.       -11.        0.0        21.       -11.        0.0
  OSSO-CUT-1        1387        22.       -12.        0.0        22.       -12.        0.0
  OSSO-CUT-1        1388        23.       -12.        0.0        23.       -12.        0.0
  OSSO-CUT-1        1389        24.       -13.        0.0        24.       -13.        0.0
  OSSO-CUT-1        1390        23.       -12.        0.0        23.       -12.        0.0
  OSSO-CUT-1        1391        22.       -13.        0.0        22.       -13.        0.0
  OSSO-CUT-1        1392        23.       -14.        0.0        23.       -14.        0.0
  OSSO-CUT-1        1393        25.       -11.        0.0        25.       -11.        0.0
  OSSO-CUT-1        1394        24.       -12.        0.0        24.       -12.        0.0
  OSSO-CUT-1        1395        25.       -13.        0.0        25.       -13.        0.0
  OSSO-CUT-1        1396        26.       -12.        0.0        26.       -12.        0.0
  OSSO-CUT-1        1397        26.        -9.        0.0        26.        -9.        0.0
  OSSO-CUT-1        1398        26.        -8.        0.0        26.        -8.        0.0
  OSSO-CUT-1        1399        25.        -9.        0.0        25.        -9.        0.0
  OSSO-CUT-1        1400        25.       -10.        0.0        25.       -10.        0.0
  OSSO-CUT-1        1401        25.        -7.        0.0        25.        -7.        0.0
  OSSO-CUT-1        1402        26.        -8.        0.0        26.        -8.        0.0
  OSSO-CUT-1        1403        26.        -7.        0.0        26.        -7.        0.0
  OSSO-CUT-1        1404        25.        -7.        0.0        25.        -7.        0.0
  OSSO-CUT-1        1405        25.        -6.        0.0        25.        -6.        0.0
  OSSO-CUT-1        1406        25.        -5.        0.0        25.        -5.        0.0
  OSSO-CUT-1        1407        24.        -6.        0.0        24.        -6.        0.0
  OSSO-CUT-1        1408        24.        -5.        0.0        24.        -5.        0.0
  OSSO-CUT-1        1409        24.        -4.        0.0        24.        -4.        0.0
  OSSO-CUT-1        1410        23.        -4.        0.0        23.        -4.        0.0
  OSSO-CUT-1        1411        24.        -5.        0.0        24.        -5.        0.0
  OSSO-CUT-1        1412        19.        -2.        0.0        19.        -2.        0.0
  OSSO-CUT-1        1413        20.        -1.        0.0        20.        -1.        0.0
  OSSO-CUT-1        1414        20.  -514.E-03        0.0        20.  -515.E-03        0.0
  OSSO-CUT-1        1415        19.  -643.E-03        0.0        19.  -644.E-03        0.0
  OSSO-CUT-1        1416        18.  -719.E-03        0.0        18.  -720.E-03        0.0
  OSSO-CUT-1        1417        19.   355.E-03        0.0        19.   354.E-03        0.0
  OSSO-CUT-1        1418        18.   279.E-03        0.0        18.   278.E-03        0.0
  OSSO-CUT-1        1419        15.        -3.        0.0        15.        -3.        0.0
  OSSO-CUT-1        1420        17.        -3.        0.0        17.        -3.        0.0
  OSSO-CUT-1        1421        16.        -2.        0.0        17.        -2.        0.0
  OSSO-CUT-1        1422        15.        -2.        0.0        15.        -2.        0.0
  OSSO-CUT-1        1423        17.        -5.        0.0        17.        -5.        0.0
  OSSO-CUT-1        1424        17.        -4.        0.0        17.        -4.        0.0
  OSSO-CUT-1        1425        15.        -4.        0.0        15.        -4.        0.0
  OSSO-CUT-1        1426        16.        -5.        0.0        16.        -5.        0.0
  OSSO-CUT-1        1427        14.        -3.        0.0        14.        -3.        0.0
  OSSO-CUT-1        1428        14.        -4.        0.0        14.        -4.        0.0
  OSSO-CUT-1        1429        12.        -2.        0.0        12.        -2.        0.0
  OSSO-CUT-1        1430        13.        -2.        0.0        13.        -2.        0.0
  OSSO-CUT-1        1431        13.  -685.E-03        0.0        13.  -686.E-03        0.0
  OSSO-CUT-1        1432        12.  -645.E-03        0.0        12.  -646.E-03        0.0
  OSSO-CUT-1        1433        11.        -2.        0.0        11.        -2.        0.0
  OSSO-CUT-1        1434        11.        -3.        0.0        11.        -3.        0.0
  OSSO-CUT-1        1435        12.        -3.        0.0        12.        -3.        0.0
  OSSO-CUT-1        1436         9.         2.        0.0         9.         2.        0.0
  OSSO-CUT-1        1437         8.         2.        0.0         8.         2.        0.0
  OSSO-CUT-1        1438         8.   786.E-03        0.0         8.   785.E-03        0.0
  OSSO-CUT-1        1439         9.   650.E-03        0.0         9.   650.E-03        0.0
  OSSO-CUT-1        1440         7.         1.        0.0         7.         1.        0.0
  OSSO-CUT-1        1441         7.         2.        0.0         7.         2.        0.0
  OSSO-CUT-1        1442         6.         2.        0.0         6.         2.        0.0
  OSSO-CUT-1        1443         6.         1.        0.0         6.         1.        0.0
  OSSO-CUT-1        1444         3.  -682.E-03        0.0         3.  -682.E-03        0.0
  OSSO-CUT-1        1445         4.    49.E-03        0.0         4.    49.E-03        0.0
  OSSO-CUT-1        1446         3.   268.E-03        0.0         3.   268.E-03        0.0
  OSSO-CUT-1        1447         3.  -463.E-03        0.0         3.  -463.E-03        0.0
  OSSO-CUT-1        1448   355.E-03  -287.E-03        0.0   358.E-03  -287.E-03        0.0
  OSSO-CUT-1        1449    16.E-03   538.E-03        0.0    18.E-03   538.E-03        0.0
  OSSO-CUT-1        1450  -853.E-03   152.E-03        0.0  -850.E-03   152.E-03        0.0
  OSSO-CUT-1        1451  -513.E-03  -673.E-03        0.0  -511.E-03  -673.E-03        0.0
  OSSO-CUT-1        1452        -2.         1.        0.0        -2.         1.        0.0
  OSSO-CUT-1        1453        -3.         1.        0.0        -3.         1.        0.0
  OSSO-CUT-1        1454        -3.   192.E-03        0.0        -3.   191.E-03        0.0
  OSSO-CUT-1        1455        -2.   622.E-03        0.0        -2.   621.E-03        0.0
  OSSO-CUT-1        1456        -5.        -1.        0.0        -5.        -1.        0.0
  OSSO-CUT-1        1457        -6.  -104.E-03        0.0        -6.  -104.E-03        0.0
  OSSO-CUT-1        1458        -6.  -547.E-03        0.0        -6.  -547.E-03        0.0
  OSSO-CUT-1        1459        -6.        -1.        0.0        -6.        -1.        0.0
  OSSO-CUT-1        1460        -7.        -1.        0.0        -7.        -1.        0.0
  OSSO-CUT-1        1461        -7.        -2.        0.0        -7.        -2.        0.0
  OSSO-CUT-1        1462        -7.  -342.E-03        0.0        -7.  -343.E-03        0.0
  OSSO-CUT-1        1463        -5.        -4.        0.0        -5.        -4.        0.0
  OSSO-CUT-1        1464        -4.        -3.        0.0        -4.        -3.        0.0
  OSSO-CUT-1        1465        -4.        -3.        0.0        -4.        -3.        0.0
  OSSO-CUT-1        1466        -5.        -3.        0.0        -5.        -3.        0.0
  OSSO-CUT-1        1467        -6.        -5.        0.0        -6.        -5.        0.0
  OSSO-CUT-1        1468        -5.        -5.        0.0        -5.        -5.        0.0
  OSSO-CUT-1        1469        -4.        -5.        0.0        -4.        -5.        0.0
  OSSO-CUT-1        1470        -6.        -6.        0.0        -6.        -6.        0.0
  OSSO-CUT-1        1471        -5.        -7.        0.0        -5.        -7.        0.0
  OSSO-CUT-1        1472        -4.        -6.        0.0        -4.        -6.        0.0
  OSSO-CUT-1        1473        -1.       -12.        0.0        -1.       -12.        0.0
  OSSO-CUT-1        1474  -334.E-03       -12.        0.0  -332.E-03       -12.        0.0
  OSSO-CUT-1        1475   -70.E-03       -11.        0.0   -68.E-03       -11.        0.0
  OSSO-CUT-1        1476        -1.       -11.        0.0        -1.       -11.        0.0
  OSSO-CUT-1        1477         1.        -8.        0.0         1.        -8.        0.0
  OSSO-CUT-1        1478   509.E-03        -9.        0.0   511.E-03        -9.        0.0
  OSSO-CUT-1        1479         1.        -9.        0.0         1.        -9.        0.0
  OSSO-CUT-1        1480         2.        -8.        0.0         2.        -8.        0.0
  OSSO-CUT-1        1481   -77.E-03        -9.        0.0   -75.E-03        -9.        0.0
  OSSO-CUT-1        1482  -272.E-03        -8.        0.0  -270.E-03        -8.        0.0
  OSSO-CUT-1        1483  -858.E-03        -9.        0.0  -856.E-03        -9.        0.0
  OSSO-CUT-1        1484         3.       -11.        0.0         3.       -11.        0.0
  OSSO-CUT-1        1485         3.       -10.        0.0         3.       -10.        0.0
  OSSO-CUT-1        1486         2.       -11.        0.0         2.       -11.        0.0
  OSSO-CUT-1        1487         3.       -11.        0.0         3.       -11.        0.0
  OSSO-CUT-1        1488         4.       -12.        0.0         4.       -12.        0.0
  OSSO-CUT-1        1489         4.       -12.        0.0         4.       -12.        0.0
  OSSO-CUT-1        1490         3.       -12.        0.0         3.       -12.        0.0
  OSSO-CUT-1        1491        28.        10.        0.0        28.        10.        0.0
  OSSO-CUT-1        1492        29.         9.        0.0        29.         9.        0.0
  OSSO-CUT-1        1493        29.        10.        0.0        29.        10.        0.0
  OSSO-CUT-1        1494        29.        11.        0.0        29.        11.        0.0
  OSSO-CUT-1        1495        27.         6.        0.0        27.         6.        0.0
  OSSO-CUT-1        1496        28.         5.        0.0        28.         5.        0.0
  OSSO-CUT-1        1497        29.         6.        0.0        29.         6.        0.0
  OSSO-CUT-1        1498        28.         6.        0.0        28.         6.        0.0
  OSSO-CUT-1        1499        29.         7.        0.0        29.         7.        0.0
  OSSO-CUT-1        1500        29.         8.        0.0        29.         8.        0.0
  OSSO-CUT-1        1501        28.         7.        0.0        28.         7.        0.0
  OSSO-CUT-1        1502        25.         7.        0.0        25.         7.        0.0
  OSSO-CUT-1        1503        24.         7.        0.0        24.         7.        0.0
  OSSO-CUT-1        1504        24.         6.        0.0        24.         6.        0.0
  OSSO-CUT-1        1505        25.         6.        0.0        25.         6.        0.0
  OSSO-CUT-1        1506        23.         6.        0.0        23.         6.        0.0
  OSSO-CUT-1        1507        23.         5.        0.0        23.         5.        0.0
  OSSO-CUT-1        1508        24.         5.        0.0        24.         5.        0.0
  OSSO-CUT-1        1509        22.         4.        0.0        22.         4.        0.0
  OSSO-CUT-1        1510        22.         4.        0.0        22.         4.        0.0
  OSSO-CUT-1        1511        23.         4.        0.0        23.         4.        0.0
  OSSO-CUT-1        1512        26.         1.        0.0        26.         1.        0.0
  OSSO-CUT-1        1513        26.         2.        0.0        26.         2.        0.0
  OSSO-CUT-1        1514        25.         1.        0.0        25.         1.        0.0
  OSSO-CUT-1        1515        26.   358.E-03        0.0        26.   357.E-03        0.0
  OSSO-CUT-1        1516        27.         3.        0.0        27.         3.        0.0
  OSSO-CUT-1        1517        27.         2.        0.0        27.         2.        0.0
  OSSO-CUT-1        1518        28.         3.        0.0        28.         3.        0.0
  OSSO-CUT-1        1519        27.         3.        0.0        27.         3.        0.0
  OSSO-CUT-1        1520        24.         3.        0.0        24.         3.        0.0
  OSSO-CUT-1        1521        25.         3.        0.0        25.         3.        0.0
  OSSO-CUT-1        1522        25.         4.        0.0        25.         4.        0.0
  OSSO-CUT-1        1523        25.         4.        0.0        25.         4.        0.0
  OSSO-CUT-1        1524        25.        13.        0.0        25.        13.        0.0
  OSSO-CUT-1        1525        26.        13.        0.0        26.        13.        0.0
  OSSO-CUT-1        1526        26.        14.        0.0        26.        14.        0.0
  OSSO-CUT-1        1527        25.        14.        0.0        25.        14.        0.0
  OSSO-CUT-1        1528        25.        12.        0.0        25.        12.        0.0
  OSSO-CUT-1        1529        24.        13.        0.0        24.        13.        0.0
  OSSO-CUT-1        1530        24.        12.        0.0        24.        12.        0.0
  OSSO-CUT-1        1531        26.        16.        0.0        26.        16.        0.0
  OSSO-CUT-1        1532        26.        16.        0.0        26.        16.        0.0
  OSSO-CUT-1        1533        25.        15.        0.0        25.        15.        0.0
  OSSO-CUT-1        1534        26.        15.        0.0        26.        15.        0.0
  OSSO-CUT-1        1535        21.        17.        0.0        21.        17.        0.0
  OSSO-CUT-1        1536        21.        15.        0.0        21.        15.        0.0
  OSSO-CUT-1        1537        22.        15.        0.0        22.        15.        0.0
  OSSO-CUT-1        1538        22.        17.        0.0        22.        17.        0.0
  OSSO-CUT-1        1539        19.        19.        0.0        19.        19.        0.0
  OSSO-CUT-1        1540        19.        20.        0.0        19.        20.        0.0
  OSSO-CUT-1        1541        18.        20.        0.0        18.        20.        0.0
  OSSO-CUT-1        1542        18.        19.        0.0        18.        19.        0.0
  OSSO-CUT-1        1543        18.        21.        0.0        18.        21.        0.0
  OSSO-CUT-1        1544        19.        21.        0.0        19.        21.        0.0
  OSSO-CUT-1        1545        19.        22.        0.0        19.        22.        0.0
  OSSO-CUT-1        1546        18.        22.        0.0        18.        22.        0.0
  OSSO-CUT-1        1547        15.        23.        0.0        15.        23.        0.0
  OSSO-CUT-1        1548        15.        22.        0.0        15.        22.        0.0
  OSSO-CUT-1        1549        16.        22.        0.0        16.        22.        0.0
  OSSO-CUT-1        1550        16.        23.        0.0        16.        23.        0.0
  OSSO-CUT-1        1551        14.        24.        0.0        14.        24.        0.0
  OSSO-CUT-1        1552        14.        25.        0.0        14.        25.        0.0
  OSSO-CUT-1        1553        13.        25.        0.0        13.        25.        0.0
  OSSO-CUT-1        1554        13.        24.        0.0        13.        24.        0.0
  OSSO-CUT-1        1555        22.        14.        0.0        22.        14.        0.0
  OSSO-CUT-1        1556        23.        14.        0.0        23.        14.        0.0
  OSSO-CUT-1        1557        23.        15.        0.0        23.        15.        0.0
  OSSO-CUT-1        1558        24.        14.        0.0        24.        14.        0.0
  OSSO-CUT-1        1559        23.        13.        0.0        23.        13.        0.0
  OSSO-CUT-1        1560        22.        -1.        0.0        22.        -1.        0.0
  OSSO-CUT-1        1561        22.  -231.E-03        0.0        22.  -232.E-03        0.0
  OSSO-CUT-1        1562        21.  -387.E-03        0.0        21.  -388.E-03        0.0
  OSSO-CUT-1        1563        21.        -1.        0.0        21.        -1.        0.0
  OSSO-CUT-1        1564        23.        -3.        0.0        23.        -3.        0.0
  OSSO-CUT-1        1565        25.        -3.        0.0        25.        -3.        0.0
  OSSO-CUT-1        1566        24.        -2.        0.0        24.        -2.        0.0
  OSSO-CUT-1        1567        25.        -2.        0.0        25.        -2.        0.0
  OSSO-CUT-1        1568        26.        -2.        0.0        26.        -2.        0.0
  OSSO-CUT-1        1569        25.        -1.        0.0        25.        -1.        0.0
  OSSO-CUT-1        1570        25.        -2.        0.0        25.        -2.        0.0
  OSSO-CUT-1        1571        26.        -3.        0.0        26.        -3.        0.0
  OSSO-CUT-1        1572        26.        -4.        0.0        26.        -4.        0.0
  OSSO-CUT-1        1573        27.        -3.        0.0        27.        -3.        0.0
  OSSO-CUT-1        1574        27.        -2.        0.0        27.        -2.        0.0
  OSSO-CUT-1        1575        10.         2.        0.0        10.         2.        0.0
  OSSO-CUT-1        1576        10.         3.        0.0        10.         3.        0.0
  OSSO-CUT-1        1577         9.         3.        0.0         9.         3.        0.0
  OSSO-CUT-1        1578         5.         4.        0.0         5.         4.        0.0
  OSSO-CUT-1        1579         6.         4.        0.0         6.         4.        0.0
  OSSO-CUT-1        1580         6.         5.        0.0         6.         5.        0.0
  OSSO-CUT-1        1581         5.         5.        0.0         5.         5.        0.0
  OSSO-CUT-1        1582         4.         7.        0.0         4.         7.        0.0
  OSSO-CUT-1        1583         5.         7.        0.0         5.         7.        0.0
  OSSO-CUT-1        1584         5.         8.        0.0         5.         8.        0.0
  OSSO-CUT-1        1585         4.         8.        0.0         4.         8.        0.0
  OSSO-CUT-1        1586  -428.E-03         9.        0.0  -425.E-03         9.        0.0
  OSSO-CUT-1        1587   727.E-03         9.        0.0   730.E-03         9.        0.0
  OSSO-CUT-1        1588   589.E-03        10.        0.0   592.E-03        10.        0.0
  OSSO-CUT-1        1589  -566.E-03        10.        0.0  -563.E-03        10.        0.0
  OSSO-CUT-1        1590        -4.        15.        0.0        -4.        15.        0.0
  OSSO-CUT-1        1591        -3.        15.        0.0        -3.        15.        0.0
  OSSO-CUT-1        1592        -3.        16.        0.0        -3.        16.        0.0
  OSSO-CUT-1        1593        -4.        16.        0.0        -4.        16.        0.0
  OSSO-CUT-1        1594        -5.        16.        0.0        -5.        16.        0.0
  OSSO-CUT-1        1595        -5.        16.        0.0        -5.        16.        0.0
  OSSO-CUT-1        1596        -5.        15.        0.0        -5.        15.        0.0
  OSSO-CUT-1        1597        -5.        15.        0.0        -5.        15.        0.0
  OSSO-CUT-1        1598        -4.        17.        0.0        -4.        17.        0.0
  OSSO-CUT-1        1599        -4.        17.        0.0        -4.        17.        0.0
  OSSO-CUT-1        1600        -7.        13.        0.0        -7.        13.        0.0
  OSSO-CUT-1        1601        -7.        12.        0.0        -7.        12.        0.0
  OSSO-CUT-1        1602        -6.        11.        0.0        -6.        11.        0.0
  OSSO-CUT-1        1603        -6.        12.        0.0        -6.        12.        0.0
  OSSO-CUT-1        1604        -6.        15.        0.0        -6.        15.        0.0
  OSSO-CUT-1        1605        -6.        14.        0.0        -6.        14.        0.0
  OSSO-CUT-1        1606        -5.        14.        0.0        -5.        14.        0.0
  OSSO-CUT-1        1607        -3.        10.        0.0        -3.        10.        0.0
  OSSO-CUT-1        1608        -3.        10.        0.0        -3.        10.        0.0
  OSSO-CUT-1        1609        -3.        11.        0.0        -3.        11.        0.0
  OSSO-CUT-1        1610        -4.        10.        0.0        -4.        10.        0.0
  OSSO-CUT-1        1611        -1.         6.        0.0        -1.         6.        0.0
  OSSO-CUT-1        1612  -615.E-03         7.        0.0  -612.E-03         7.        0.0
  OSSO-CUT-1        1613  -977.E-03         8.        0.0  -973.E-03         8.        0.0
  OSSO-CUT-1        1614        -2.         7.        0.0        -2.         7.        0.0
  OSSO-CUT-1        1615         4.         4.        0.0         4.         4.        0.0
  OSSO-CUT-1        1616         4.         5.        0.0         4.         5.        0.0
  OSSO-CUT-1        1617         3.         5.        0.0         3.         5.        0.0
  OSSO-CUT-1        1618         3.         4.        0.0         3.         4.        0.0
  OSSO-CUT-1        1619         7.         3.        0.0         7.         3.        0.0
  OSSO-CUT-1        1620         7.         4.        0.0         7.         4.        0.0
  OSSO-CUT-1        1621         6.         3.        0.0         6.         3.        0.0
  OSSO-CUT-1        1622         8.         5.        0.0         8.         5.        0.0
  OSSO-CUT-1        1623         7.         5.        0.0         7.         5.        0.0
  OSSO-CUT-1        1624         8.         4.        0.0         8.         4.        0.0
  OSSO-CUT-1        1625        -6.        10.        0.0        -6.        10.        0.0
  OSSO-CUT-1        1626        -7.        11.        0.0        -7.        11.        0.0
  OSSO-CUT-1        1627        -7.        10.        0.0        -7.        10.        0.0
  OSSO-CUT-1        1628        -7.         9.        0.0        -7.         9.        0.0
  OSSO-CUT-1        1629        -7.         8.        0.0        -7.         8.        0.0
  OSSO-CUT-1        1630        -7.         8.        0.0        -7.         8.        0.0
  OSSO-CUT-1        1631        -7.         7.        0.0        -7.         7.        0.0
  OSSO-CUT-1        1632        -6.         8.        0.0        -6.         8.        0.0
  OSSO-CUT-1        1633        -4.         2.        0.0        -4.         2.        0.0
  OSSO-CUT-1        1634        -5.         2.        0.0        -5.         2.        0.0
  OSSO-CUT-1        1635        -5.         1.        0.0        -5.         1.        0.0
  OSSO-CUT-1        1636        -4.         2.        0.0        -4.         2.        0.0
  OSSO-CUT-1        1637        -9.         1.        0.0        -9.         1.        0.0
  OSSO-CUT-1        1638        -8.         1.        0.0        -8.         1.        0.0
  OSSO-CUT-1        1639        -8.         2.        0.0        -8.         2.        0.0
  OSSO-CUT-1        1640        -9.         2.        0.0        -9.         2.        0.0
  OSSO-CUT-1        1641       -15.         9.        0.0       -15.         9.        0.0
  OSSO-CUT-1        1642       -15.        10.        0.0       -15.        10.        0.0
  OSSO-CUT-1        1643       -16.        10.        0.0       -16.        10.        0.0
  OSSO-CUT-1        1644       -16.         9.        0.0       -16.         9.        0.0
  OSSO-CUT-1        1645       -12.         6.        0.0       -12.         6.        0.0
  OSSO-CUT-1        1646       -12.         5.        0.0       -12.         5.        0.0
  OSSO-CUT-1        1647       -11.         5.        0.0       -11.         5.        0.0
  OSSO-CUT-1        1648       -11.         6.        0.0       -11.         6.        0.0
  OSSO-CUT-1        1649       -12.         4.        0.0       -12.         4.        0.0
  OSSO-CUT-1        1650       -12.         3.        0.0       -12.         3.        0.0
  OSSO-CUT-1        1651       -11.         3.        0.0       -11.         3.        0.0
  OSSO-CUT-1        1652       -11.         4.        0.0       -11.         4.        0.0
  OSSO-CUT-1        1653       -10.         5.        0.0       -10.         5.        0.0
  OSSO-CUT-1        1654       -10.         6.        0.0       -10.         6.        0.0
  OSSO-CUT-1        1655        -9.         3.        0.0        -9.         3.        0.0
  OSSO-CUT-1        1656       -10.         2.        0.0       -10.         2.        0.0
  OSSO-CUT-1        1657       -13.        10.        0.0       -13.        10.        0.0
  OSSO-CUT-1        1658       -14.        10.        0.0       -14.        10.        0.0
  OSSO-CUT-1        1659       -14.         9.        0.0       -14.         9.        0.0
  OSSO-CUT-1        1660       -13.         8.        0.0       -13.         8.        0.0
  OSSO-CUT-1        1661       -11.         9.        0.0       -11.         9.        0.0
  OSSO-CUT-1        1662       -11.        11.        0.0       -11.        11.        0.0
  OSSO-CUT-1        1663       -12.        11.        0.0       -12.        11.        0.0
  OSSO-CUT-1        1664        -9.        10.        0.0        -9.        10.        0.0
  OSSO-CUT-1        1665       -10.        10.        0.0       -10.        10.        0.0
  OSSO-CUT-1        1666       -10.         9.        0.0       -10.         9.        0.0
  OSSO-CUT-1        1667        -9.         9.        0.0        -9.         9.        0.0
  OSSO-CUT-1        1668       -11.        12.        0.0       -11.        12.        0.0
  OSSO-CUT-1        1669       -10.        12.        0.0       -10.        12.        0.0
  OSSO-CUT-1        1670       -12.        12.        0.0       -12.        12.        0.0
  OSSO-CUT-1        1671       -11.        13.        0.0       -11.        13.        0.0
  OSSO-CUT-1        1672       -12.        13.        0.0       -12.        13.        0.0
  OSSO-CUT-1        1673       -13.         4.        0.0       -13.         4.        0.0
  OSSO-CUT-1        1674       -13.         5.        0.0       -13.         5.        0.0
  OSSO-CUT-1        1675       -14.         5.        0.0       -14.         5.        0.0
  OSSO-CUT-1        1676       -14.         4.        0.0       -14.         4.        0.0
  OSSO-CUT-1        1677        -3.        -8.        0.0        -3.        -8.        0.0
  OSSO-CUT-1        1678        -2.        -8.        0.0        -2.        -8.        0.0
  OSSO-CUT-1        1679        -3.        -7.        0.0        -3.        -7.        0.0
  OSSO-CUT-1        1680        -4.        -8.        0.0        -4.        -8.        0.0
  OSSO-CUT-1        1681        -4.       -13.        0.0        -4.       -13.        0.0
  OSSO-CUT-1        1682        -4.       -13.        0.0        -4.       -13.        0.0
  OSSO-CUT-1        1683        -3.       -13.        0.0        -3.       -13.        0.0
  OSSO-CUT-1        1684        -2.       -13.        0.0        -2.       -13.        0.0
  OSSO-CUT-1        1685        -2.       -11.        0.0        -2.       -11.        0.0
  OSSO-CUT-1        1686        -3.       -12.        0.0        -3.       -12.        0.0
  OSSO-CUT-1        1687        -2.       -16.        0.0        -2.       -16.        0.0
  OSSO-CUT-1        1688        -1.       -15.        0.0        -1.       -15.        0.0
  OSSO-CUT-1        1689        -2.       -14.        0.0        -2.       -14.        0.0
  OSSO-CUT-1        1690        -3.       -20.        0.0        -3.       -20.        0.0
  OSSO-CUT-1        1691        -2.       -19.        0.0        -2.       -19.        0.0
  OSSO-CUT-1        1692        -3.       -19.        0.0        -3.       -19.        0.0
  OSSO-CUT-1        1693        -4.       -19.        0.0        -4.       -19.        0.0
  OSSO-CUT-1        1694  -721.E-03       -28.        0.0  -720.E-03       -28.        0.0
  OSSO-CUT-1        1695        -1.       -27.        0.0        -1.       -27.        0.0
  OSSO-CUT-1        1696        -2.       -28.        0.0        -2.       -28.        0.0
  OSSO-CUT-1        1697        -1.       -29.        0.0        -1.       -29.        0.0
  OSSO-CUT-1        1698  -951.E-03       -30.        0.0  -950.E-03       -30.        0.0
  OSSO-CUT-1        1699        -1.       -31.        0.0        -1.       -31.        0.0
  OSSO-CUT-1        1700    23.E-03       -31.        0.0    24.E-03       -31.        0.0
  OSSO-CUT-1        1701   260.E-03       -30.        0.0   260.E-03       -30.        0.0
  OSSO-CUT-1        1702         4.       -34.        0.0         4.       -34.        0.0
  OSSO-CUT-1        1703         4.       -34.        0.0         4.       -34.        0.0
  OSSO-CUT-1        1704         3.       -34.        0.0         3.       -34.        0.0
  OSSO-CUT-1        1705         4.       -35.        0.0         4.       -35.        0.0
  OSSO-CUT-1        1706         7.       -39.        0.0         7.       -39.        0.0
  OSSO-CUT-1        1707         7.       -40.        0.0         7.       -40.        0.0
  OSSO-CUT-1        1708         8.       -39.        0.0         8.       -39.        0.0
  OSSO-CUT-1        1709         7.       -39.        0.0         7.       -39.        0.0
  OSSO-CUT-1        1710        10.       -40.        0.0        10.       -40.        0.0
  OSSO-CUT-1        1711         9.       -40.        0.0         9.       -40.        0.0
  OSSO-CUT-1        1712        10.       -41.        0.0        10.       -41.        0.0
  OSSO-CUT-1        1713        11.       -41.        0.0        11.       -41.        0.0
  OSSO-CUT-1        1714        11.       -42.        0.0        11.       -42.        0.0
  OSSO-CUT-1        1715         9.       -42.        0.0         9.       -42.        0.0
  OSSO-CUT-1        1716        10.       -42.        0.0        10.       -42.        0.0
  OSSO-CUT-1        1717        12.       -42.        0.0        12.       -42.        0.0
  OSSO-CUT-1        1718        13.       -42.        0.0        13.       -42.        0.0
  OSSO-CUT-1        1719        14.       -42.        0.0        14.       -42.        0.0
  OSSO-CUT-1        1720        13.       -41.        0.0        13.       -41.        0.0
  OSSO-CUT-1        1721        14.       -42.        0.0        14.       -42.        0.0
  OSSO-CUT-1        1722        15.       -42.        0.0        15.       -42.        0.0
  OSSO-CUT-1        1723        14.       -41.        0.0        14.       -41.        0.0
  OSSO-CUT-1        1724        15.       -40.        0.0        15.       -40.        0.0
  OSSO-CUT-1        1725        15.       -39.        0.0        15.       -39.        0.0
  OSSO-CUT-1        1726        14.       -40.        0.0        14.       -40.        0.0
  OSSO-CUT-1        1727        18.       -37.        0.0        18.       -37.        0.0
  OSSO-CUT-1        1728        17.       -36.        0.0        17.       -36.        0.0
  OSSO-CUT-1        1729        17.       -37.        0.0        17.       -37.        0.0
  OSSO-CUT-1        1730        17.       -38.        0.0        17.       -38.        0.0
  OSSO-CUT-1        1731        17.       -34.        0.0        17.       -34.        0.0
  OSSO-CUT-1        1732        16.       -34.        0.0        16.       -34.        0.0
  OSSO-CUT-1        1733        17.       -35.        0.0        17.       -35.        0.0
  OSSO-CUT-1        1734        18.       -35.        0.0        18.       -35.        0.0
  OSSO-CUT-1        1735        17.       -31.        0.0        17.       -31.        0.0
  OSSO-CUT-1        1736        18.       -31.        0.0        18.       -31.        0.0
  OSSO-CUT-1        1737        18.       -30.        0.0        18.       -30.        0.0
  OSSO-CUT-1        1738        17.       -30.        0.0        17.       -30.        0.0
  OSSO-CUT-1        1739        15.       -29.        0.0        15.       -29.        0.0
  OSSO-CUT-1        1740        15.       -29.        0.0        15.       -29.        0.0
  OSSO-CUT-1        1741        15.       -28.        0.0        15.       -28.        0.0
  OSSO-CUT-1        1742        14.       -29.        0.0        14.       -29.        0.0
  OSSO-CUT-1        1743        16.       -25.        0.0        16.       -25.        0.0
  OSSO-CUT-1        1744        16.       -26.        0.0        16.       -26.        0.0
  OSSO-CUT-1        1745        17.       -25.        0.0        17.       -25.        0.0
  OSSO-CUT-1        1746        17.       -24.        0.0        17.       -24.        0.0
  OSSO-CUT-1        1747        18.       -22.        0.0        18.       -22.        0.0
  OSSO-CUT-1        1748        18.       -22.        0.0        18.       -22.        0.0
  OSSO-CUT-1        1749        18.       -23.        0.0        18.       -23.        0.0
  OSSO-CUT-1        1750        19.       -22.        0.0        19.       -22.        0.0
  OSSO-CUT-1        1751        15.       -19.        0.0        15.       -19.        0.0
  OSSO-CUT-1        1752        15.       -19.        0.0        15.       -19.        0.0
  OSSO-CUT-1        1753        14.       -20.        0.0        14.       -20.        0.0
  OSSO-CUT-1        1754        15.       -20.        0.0        15.       -20.        0.0
  OSSO-CUT-1        1755        16.       -18.        0.0        16.       -18.        0.0
  OSSO-CUT-1        1756        16.       -17.        0.0        16.       -17.        0.0
  OSSO-CUT-1        1757        15.       -17.        0.0        15.       -17.        0.0
  OSSO-CUT-1        1758        15.       -18.        0.0        15.       -18.        0.0
  OSSO-CUT-1        1759        12.       -14.        0.0        12.       -14.        0.0
  OSSO-CUT-1        1760        13.       -14.        0.0        13.       -14.        0.0
  OSSO-CUT-1        1761        12.       -13.        0.0        12.       -13.        0.0
  OSSO-CUT-1        1762        13.       -19.        0.0        13.       -19.        0.0
  OSSO-CUT-1        1763        12.       -19.        0.0        12.       -19.        0.0
  OSSO-CUT-1        1764        12.       -20.        0.0        12.       -20.        0.0
  OSSO-CUT-1        1765        13.       -19.        0.0        13.       -19.        0.0
  OSSO-CUT-1        1766        14.       -22.        0.0        14.       -22.        0.0
  OSSO-CUT-1        1767        13.       -21.        0.0        13.       -21.        0.0
  OSSO-CUT-1        1768        13.       -22.        0.0        13.       -22.        0.0
  OSSO-CUT-1        1769        13.       -22.        0.0        13.       -22.        0.0
  OSSO-CUT-1        1770        13.       -23.        0.0        13.       -23.        0.0
  OSSO-CUT-1        1771        12.       -22.        0.0        12.       -22.        0.0
  OSSO-CUT-1        1772        11.       -23.        0.0        11.       -23.        0.0
  OSSO-CUT-1        1773        12.       -24.        0.0        12.       -24.        0.0
  OSSO-CUT-1        1774        13.       -28.        0.0        13.       -28.        0.0
  OSSO-CUT-1        1775        12.       -29.        0.0        12.       -29.        0.0
  OSSO-CUT-1        1776        13.       -30.        0.0        13.       -30.        0.0
  OSSO-CUT-1        1777        11.       -33.        0.0        11.       -33.        0.0
  OSSO-CUT-1        1778        12.       -33.        0.0        12.       -33.        0.0
  OSSO-CUT-1        1779        12.       -33.        0.0        12.       -33.        0.0
  OSSO-CUT-1        1780        12.       -33.        0.0        12.       -33.        0.0
  OSSO-CUT-1        1781        15.       -34.        0.0        15.       -34.        0.0
  OSSO-CUT-1        1782        14.       -34.        0.0        14.       -34.        0.0
  OSSO-CUT-1        1783        14.       -34.        0.0        14.       -34.        0.0
  OSSO-CUT-1        1784        15.       -35.        0.0        15.       -35.        0.0
  OSSO-CUT-1        1785        13.       -39.        0.0        13.       -39.        0.0
  OSSO-CUT-1        1786        12.       -38.        0.0        12.       -38.        0.0
  OSSO-CUT-1        1787        11.       -38.        0.0        11.       -38.        0.0
  OSSO-CUT-1        1788        12.       -39.        0.0        12.       -39.        0.0
  OSSO-CUT-1        1789        16.       -38.        0.0        16.       -38.        0.0
  OSSO-CUT-1        1790        15.       -39.        0.0        15.       -39.        0.0
  OSSO-CUT-1        1791        16.       -39.        0.0        16.       -39.        0.0
  OSSO-CUT-1        1792        17.       -39.        0.0        17.       -39.        0.0
  OSSO-CUT-1        1793        -3.       -29.        0.0        -3.       -29.        0.0
  OSSO-CUT-1        1794        -4.       -30.        0.0        -4.       -30.        0.0
  OSSO-CUT-1        1795        -3.       -31.        0.0        -3.       -31.        0.0
  OSSO-CUT-1        1796        -2.       -30.        0.0        -2.       -30.        0.0
  OSSO-CUT-1        1797  -403.E-03       -29.        0.0  -403.E-03       -29.        0.0
  OSSO-CUT-1        1798   245.E-03       -34.        0.0   245.E-03       -34.        0.0
  OSSO-CUT-1        1799  -325.E-03       -34.        0.0  -324.E-03       -34.        0.0
  OSSO-CUT-1        1800  -984.E-03       -34.        0.0  -983.E-03       -34.        0.0
  OSSO-CUT-1        1801  -414.E-03       -35.        0.0  -414.E-03       -35.        0.0
  OSSO-CUT-1        1802         3.       -38.        0.0         3.       -38.        0.0
  OSSO-CUT-1        1803         2.       -37.        0.0         2.       -37.        0.0
  OSSO-CUT-1        1804         2.       -38.        0.0         2.       -38.        0.0
  OSSO-CUT-1        1805         2.       -39.        0.0         2.       -39.        0.0
  OSSO-CUT-1        1806         5.       -41.        0.0         5.       -41.        0.0
  OSSO-CUT-1        1807         5.       -40.        0.0         5.       -40.        0.0
  OSSO-CUT-1        1808         4.       -41.        0.0         4.       -41.        0.0
  OSSO-CUT-1        1809         4.       -41.        0.0         4.       -41.        0.0
  OSSO-CUT-1        1810         8.       -42.        0.0         8.       -42.        0.0
  OSSO-CUT-1        1811         7.       -41.        0.0         7.       -41.        0.0
  OSSO-CUT-1        1812         7.       -42.        0.0         7.       -42.        0.0
  OSSO-CUT-1        1813         7.       -42.        0.0         7.       -42.        0.0
  OSSO-CUT-1        1814        -2.       -33.        0.0        -2.       -33.        0.0
  OSSO-CUT-1        1815        -2.       -34.        0.0        -2.       -34.        0.0
  OSSO-CUT-1        1816  -905.E-03       -33.        0.0  -905.E-03       -33.        0.0
  OSSO-CUT-1        1817        -1.       -32.        0.0        -1.       -32.        0.0
  OSSO-CUT-1        1818   311.E-03       -37.        0.0   311.E-03       -37.        0.0
  OSSO-CUT-1        1819   551.E-03       -38.        0.0   551.E-03       -38.        0.0
  OSSO-CUT-1        1820         1.       -37.        0.0         1.       -37.        0.0
  OSSO-CUT-1        1821         4.       -39.        0.0         4.       -39.        0.0
  OSSO-CUT-1        1822         3.       -39.        0.0         3.       -39.        0.0
  OSSO-CUT-1        1823         3.       -39.        0.0         3.       -39.        0.0
  OSSO-CUT-1        1824         3.       -40.        0.0         3.       -40.        0.0
  OSSO-CUT-1        1825         4.       -42.        0.0         4.       -42.        0.0
  OSSO-CUT-1        1826         3.       -41.        0.0         3.       -41.        0.0
  OSSO-CUT-1        1827         2.       -42.        0.0         2.       -42.        0.0
  OSSO-CUT-1        1828         3.       -42.        0.0         3.       -42.        0.0
  OSSO-CUT-1        1829        -2.       -36.        0.0        -2.       -36.        0.0
  OSSO-CUT-1        1830        -3.       -35.        0.0        -3.       -35.        0.0
  OSSO-CUT-1        1831        -4.       -36.        0.0        -4.       -36.        0.0
  OSSO-CUT-1        1832        -3.       -37.        0.0        -3.       -37.        0.0
  OSSO-CUT-1        1833        -4.       -37.        0.0        -4.       -37.        0.0
  OSSO-CUT-1        1834        -3.       -38.        0.0        -3.       -38.        0.0
  OSSO-CUT-1        1835        -2.       -37.        0.0        -2.       -37.        0.0
  OSSO-CUT-1        1836   695.E-03       -42.        0.0   695.E-03       -42.        0.0
  OSSO-CUT-1        1837    21.E-03       -41.        0.0    21.E-03       -41.        0.0
  OSSO-CUT-1        1838  -778.E-03       -42.        0.0  -778.E-03       -42.        0.0
  OSSO-CUT-1        1839  -104.E-03       -42.        0.0  -104.E-03       -42.        0.0
  OSSO-CUT-1        1840   881.E-03       -40.        0.0   882.E-03       -40.        0.0
  OSSO-CUT-1        1841         2.       -41.        0.0         2.       -41.        0.0
  OSSO-CUT-1        1842         2.       -41.        0.0         2.       -41.        0.0
  OSSO-CUT-1        1843         2.       -40.        0.0         2.       -40.        0.0
  OSSO-CUT-1        1844        -3.       -41.        0.0        -3.       -41.        0.0
  OSSO-CUT-1        1845        -2.       -40.        0.0        -2.       -40.        0.0
  OSSO-CUT-1        1846        -3.       -39.        0.0        -3.       -39.        0.0
  OSSO-CUT-1        1847        -4.       -40.        0.0        -4.       -40.        0.0
  OSSO-CUT-1        1848        -2.       -42.        0.0        -2.       -42.        0.0
  OSSO-CUT-1        1849        -4.       -42.        0.0        -4.       -42.        0.0
  OSSO-CUT-1        1850        -3.       -42.        0.0        -3.       -42.        0.0
  OSSO-CUT-1        1851        17.       -42.        0.0        17.       -42.        0.0
  OSSO-CUT-1        1852        17.       -42.        0.0        17.       -42.        0.0
  OSSO-CUT-1        1853        18.       -42.        0.0        18.       -42.        0.0
  OSSO-CUT-1        1854        17.       -41.        0.0        17.       -41.        0.0
  OSSO-CUT-1        1855        18.       -40.        0.0        18.       -40.        0.0
  OSSO-CUT-1        1856        17.       -39.        0.0        17.       -39.        0.0
  OSSO-CUT-1        1857        17.       -40.        0.0        17.       -40.        0.0
  OSSO-CUT-1        1858        19.       -38.        0.0        19.       -38.        0.0
  OSSO-CUT-1        1859        19.       -37.        0.0        19.       -37.        0.0
  OSSO-CUT-1        1860        18.       -36.        0.0        18.       -36.        0.0
  OSSO-CUT-1        1861        18.       -35.        0.0        18.       -35.        0.0
  OSSO-CUT-1        1862        18.       -36.        0.0        18.       -36.        0.0
  OSSO-CUT-1        1863        19.       -36.        0.0        19.       -36.        0.0
  OSSO-CUT-1        1864        20.       -30.        0.0        20.       -30.        0.0
  OSSO-CUT-1        1865        19.       -31.        0.0        19.       -31.        0.0
  OSSO-CUT-1        1866        20.       -32.        0.0        20.       -32.        0.0
  OSSO-CUT-1        1867        21.       -31.        0.0        21.       -31.        0.0
  OSSO-CUT-1        1868        21.       -28.        0.0        21.       -28.        0.0
  OSSO-CUT-1        1869        20.       -27.        0.0        20.       -27.        0.0
  OSSO-CUT-1        1870        20.       -28.        0.0        20.       -28.        0.0
  OSSO-CUT-1        1871        20.       -29.        0.0        20.       -29.        0.0
  OSSO-CUT-1        1872        19.       -24.        0.0        19.       -24.        0.0
  OSSO-CUT-1        1873        19.       -25.        0.0        19.       -25.        0.0
  OSSO-CUT-1        1874        20.       -24.        0.0        20.       -24.        0.0
  OSSO-CUT-1        1875        19.       -23.        0.0        19.       -23.        0.0
  OSSO-CUT-1        1876        20.       -19.        0.0        20.       -19.        0.0
  OSSO-CUT-1        1877        20.       -18.        0.0        20.       -18.        0.0
  OSSO-CUT-1        1878        20.       -18.        0.0        20.       -18.        0.0
  OSSO-CUT-1        1879        19.       -18.        0.0        19.       -18.        0.0
  OSSO-CUT-1        1880        20.       -15.        0.0        20.       -15.        0.0
  OSSO-CUT-1        1881        20.       -16.        0.0        20.       -16.        0.0
  OSSO-CUT-1        1882        21.       -16.        0.0        21.       -16.        0.0
  OSSO-CUT-1        1883        21.       -15.        0.0        21.       -15.        0.0
  OSSO-CUT-1        1884        19.       -17.        0.0        19.       -17.        0.0
  OSSO-CUT-1        1885        18.       -16.        0.0        18.       -16.        0.0
  OSSO-CUT-1        1886        18.       -17.        0.0        18.       -17.        0.0
  OSSO-CUT-1        1887        18.       -18.        0.0        18.       -18.        0.0
  OSSO-CUT-1        1888        20.       -42.        0.0        20.       -42.        0.0
  OSSO-CUT-1        1889        20.       -42.        0.0        20.       -42.        0.0
  OSSO-CUT-1        1890        21.       -42.        0.0        21.       -42.        0.0
  OSSO-CUT-1        1891        20.       -41.        0.0        20.       -41.        0.0
  OSSO-CUT-1        1892        21.       -40.        0.0        21.       -40.        0.0
  OSSO-CUT-1        1893        20.       -39.        0.0        20.       -39.        0.0
  OSSO-CUT-1        1894        20.       -40.        0.0        20.       -40.        0.0
  OSSO-CUT-1        1895        22.       -36.        0.0        22.       -36.        0.0
  OSSO-CUT-1        1896        22.       -36.        0.0        22.       -36.        0.0
  OSSO-CUT-1        1897        23.       -36.        0.0        23.       -36.        0.0
  OSSO-CUT-1        1898        22.       -35.        0.0        22.       -35.        0.0
  OSSO-CUT-1        1899        22.       -34.        0.0        22.       -34.        0.0
  OSSO-CUT-1        1900        23.       -34.        0.0        23.       -34.        0.0
  OSSO-CUT-1        1901        23.       -33.        0.0        23.       -33.        0.0
  OSSO-CUT-1        1902        22.       -30.        0.0        22.       -30.        0.0
  OSSO-CUT-1        1903        23.       -31.        0.0        23.       -31.        0.0
  OSSO-CUT-1        1904        24.       -30.        0.0        24.       -30.        0.0
  OSSO-CUT-1        1905        23.       -29.        0.0        23.       -29.        0.0
  OSSO-CUT-1        1906        22.       -23.        0.0        22.       -23.        0.0
  OSSO-CUT-1        1907        21.       -24.        0.0        21.       -24.        0.0
  OSSO-CUT-1        1908        22.       -25.        0.0        22.       -25.        0.0
  OSSO-CUT-1        1909        23.       -24.        0.0        23.       -24.        0.0
  OSSO-CUT-1        1910        23.       -25.        0.0        23.       -25.        0.0
  OSSO-CUT-1        1911        24.       -24.        0.0        24.       -24.        0.0
  OSSO-CUT-1        1912        24.       -23.        0.0        24.       -23.        0.0
  OSSO-CUT-1        1913        22.       -20.        0.0        22.       -20.        0.0
  OSSO-CUT-1        1914        22.       -21.        0.0        22.       -21.        0.0
  OSSO-CUT-1        1915        22.       -22.        0.0        22.       -22.        0.0
  OSSO-CUT-1        1916        23.       -21.        0.0        23.       -21.        0.0
  OSSO-CUT-1        1917        22.       -16.        0.0        22.       -16.        0.0
  OSSO-CUT-1        1918        20.       -17.        0.0        20.       -17.        0.0
  OSSO-CUT-1        1919        21.       -17.        0.0        21.       -17.        0.0
  OSSO-CUT-1        1920        24.       -22.        0.0        24.       -22.        0.0
  OSSO-CUT-1        1921        25.       -21.        0.0        25.       -21.        0.0
  OSSO-CUT-1        1922        24.       -20.        0.0        24.       -20.        0.0
  OSSO-CUT-1        1923        23.       -18.        0.0        23.       -18.        0.0
  OSSO-CUT-1        1924        24.       -19.        0.0        24.       -19.        0.0
  OSSO-CUT-1        1925        25.       -18.        0.0        25.       -18.        0.0
  OSSO-CUT-1        1926        24.       -17.        0.0        24.       -17.        0.0
  OSSO-CUT-1        1927        23.       -19.        0.0        23.       -19.        0.0
  OSSO-CUT-1        1928        22.       -19.        0.0        22.       -19.        0.0
  OSSO-CUT-1        1929        23.       -19.        0.0        23.       -19.        0.0
  OSSO-CUT-1        1930        25.       -15.        0.0        25.       -15.        0.0
  OSSO-CUT-1        1931        25.       -14.        0.0        25.       -14.        0.0
  OSSO-CUT-1        1932        24.       -15.        0.0        24.       -15.        0.0
  OSSO-CUT-1        1933        24.       -16.        0.0        24.       -16.        0.0
  OSSO-CUT-1        1934        28.         4.        0.0        28.         4.        0.0
  OSSO-CUT-1        1935        27.         4.        0.0        27.         4.        0.0
  OSSO-CUT-1        1936        27.        10.        0.0        27.        10.        0.0
  OSSO-CUT-1        1937        28.         9.        0.0        28.         9.        0.0
  OSSO-CUT-1        1938        28.        11.        0.0        28.        11.        0.0
  OSSO-CUT-1        1939        28.        14.        0.0        28.        14.        0.0
  OSSO-CUT-1        1940        27.        14.        0.0        27.        14.        0.0
  OSSO-CUT-1        1941        28.        13.        0.0        28.        13.        0.0
  OSSO-CUT-1        1942        28.        13.        0.0        28.        13.        0.0
  OSSO-CUT-1        1943        30.        18.        0.0        30.        18.        0.0
  OSSO-CUT-1        1944        30.        17.        0.0        30.        17.        0.0
  OSSO-CUT-1        1945        31.        17.        0.0        31.        17.        0.0
  OSSO-CUT-1        1946        30.        18.        0.0        30.        18.        0.0
  OSSO-CUT-1        1947        30.        23.        0.0        30.        23.        0.0
  OSSO-CUT-1        1948        31.        23.        0.0        31.        23.        0.0
  OSSO-CUT-1        1949        30.        24.        0.0        30.        24.        0.0
  OSSO-CUT-1        1950        29.        23.        0.0        29.        23.        0.0
  OSSO-CUT-1        1951        30.        25.        0.0        30.        25.        0.0
  OSSO-CUT-1        1952        29.        25.        0.0        29.        25.        0.0
  OSSO-CUT-1        1953        28.        25.        0.0        28.        25.        0.0
  OSSO-CUT-1        1954        29.        24.        0.0        29.        24.        0.0
  OSSO-CUT-1        1955        26.        27.        0.0        26.        27.        0.0
  OSSO-CUT-1        1956        26.        26.        0.0        26.        26.        0.0
  OSSO-CUT-1        1957        27.        26.        0.0        27.        26.        0.0
  OSSO-CUT-1        1958        27.        26.        0.0        27.        26.        0.0
  OSSO-CUT-1        1959        27.        18.        0.0        27.        18.        0.0
  OSSO-CUT-1        1960        26.        18.        0.0        26.        18.        0.0
  OSSO-CUT-1        1961        26.        17.        0.0        26.        17.        0.0
  OSSO-CUT-1        1962        27.        17.        0.0        27.        17.        0.0
  OSSO-CUT-1        1963        27.        17.        0.0        27.        17.        0.0
  OSSO-CUT-1        1964        27.        16.        0.0        27.        16.        0.0
  OSSO-CUT-1        1965        28.        16.        0.0        28.        16.        0.0
  OSSO-CUT-1        1966        29.        16.        0.0        29.        16.        0.0
  OSSO-CUT-1        1967        29.        16.        0.0        29.        16.        0.0
  OSSO-CUT-1        1968        29.        17.        0.0        29.        17.        0.0
  OSSO-CUT-1        1969        30.        19.        0.0        30.        19.        0.0
  OSSO-CUT-1        1970        31.        19.        0.0        31.        19.        0.0
  OSSO-CUT-1        1971        31.        20.        0.0        31.        20.        0.0
  OSSO-CUT-1        1972        29.        20.        0.0        29.        20.        0.0
  OSSO-CUT-1        1973        29.        19.        0.0        29.        19.        0.0
  OSSO-CUT-1        1974        29.        18.        0.0        29.        18.        0.0
  OSSO-CUT-1        1975        32.        20.        0.0        32.        20.        0.0
  OSSO-CUT-1        1976        31.        21.        0.0        31.        21.        0.0
  OSSO-CUT-1        1977        30.        20.        0.0        30.        20.        0.0
  OSSO-CUT-1        1978        32.        23.        0.0        32.        23.        0.0
  OSSO-CUT-1        1979        32.        24.        0.0        32.        24.        0.0
  OSSO-CUT-1        1980        31.        22.        0.0        31.        22.        0.0
  OSSO-CUT-1        1981        32.        22.        0.0        32.        22.        0.0
  OSSO-CUT-1        1982        30.        22.        0.0        30.        22.        0.0
  OSSO-CUT-1        1983        31.        33.        0.0        31.        33.        0.0
  OSSO-CUT-1        1984        32.        32.        0.0        32.        32.        0.0
  OSSO-CUT-1        1985        33.        33.        0.0        33.        33.        0.0
  OSSO-CUT-1        1986        32.        34.        0.0        32.        34.        0.0
  OSSO-CUT-1        1987        32.        35.        0.0        32.        35.        0.0
  OSSO-CUT-1        1988        31.        35.        0.0        31.        35.        0.0
  OSSO-CUT-1        1989        30.        36.        0.0        30.        36.        0.0
  OSSO-CUT-1        1990        30.        35.        0.0        30.        35.        0.0
  OSSO-CUT-1        1991        31.        36.        0.0        31.        36.        0.0
  OSSO-CUT-1        1992        28.        37.        0.0        28.        37.        0.0
  OSSO-CUT-1        1993        28.        38.        0.0        28.        38.        0.0
  OSSO-CUT-1        1994        27.        38.        0.0        27.        38.        0.0
  OSSO-CUT-1        1995        27.        37.        0.0        27.        37.        0.0
  OSSO-CUT-1        1996        25.        38.        0.0        25.        38.        0.0
  OSSO-CUT-1        1997        24.        38.        0.0        24.        38.        0.0
  OSSO-CUT-1        1998        24.        37.        0.0        24.        37.        0.0
  OSSO-CUT-1        1999        26.        38.        0.0        26.        38.        0.0
  OSSO-CUT-1        2000        27.        39.        0.0        27.        39.        0.0
  OSSO-CUT-1        2001        22.        37.        0.0        22.        37.        0.0
  OSSO-CUT-1        2002        23.        37.        0.0        23.        37.        0.0
  OSSO-CUT-1        2003        23.        38.        0.0        23.        38.        0.0
  OSSO-CUT-1        2004        22.        37.        0.0        22.        37.        0.0
  OSSO-CUT-1        2005        21.        34.        0.0        21.        34.        0.0
  OSSO-CUT-1        2006        20.        34.        0.0        20.        34.        0.0
  OSSO-CUT-1        2007        19.        33.        0.0        19.        33.        0.0
  OSSO-CUT-1        2008        20.        33.        0.0        20.        33.        0.0
  OSSO-CUT-1        2009        17.        34.        0.0        17.        34.        0.0
  OSSO-CUT-1        2010        17.        33.        0.0        17.        33.        0.0
  OSSO-CUT-1        2011        18.        33.        0.0        18.        33.        0.0
  OSSO-CUT-1        2012        18.        34.        0.0        19.        34.        0.0
  OSSO-CUT-1        2013        24.        35.        0.0        24.        35.        0.0
  OSSO-CUT-1        2014        25.        35.        0.0        25.        35.        0.0
  OSSO-CUT-1        2015        24.        36.        0.0        24.        36.        0.0
  OSSO-CUT-1        2016        25.        34.        0.0        25.        34.        0.0
  OSSO-CUT-1        2017        26.        35.        0.0        26.        35.        0.0
  OSSO-CUT-1        2018        26.        36.        0.0        26.        36.        0.0
  OSSO-CUT-1        2019        19.        35.        0.0        19.        35.        0.0
  OSSO-CUT-1        2020        19.        36.        0.0        19.        36.        0.0
  OSSO-CUT-1        2021        18.        36.        0.0        18.        36.        0.0
  OSSO-CUT-1        2022        17.        35.        0.0        17.        35.        0.0
  OSSO-CUT-1        2023        21.        35.        0.0        21.        35.        0.0
  OSSO-CUT-1        2024        22.        36.        0.0        22.        36.        0.0
  OSSO-CUT-1        2025        30.        30.        0.0        30.        30.        0.0
  OSSO-CUT-1        2026        29.        31.        0.0        29.        31.        0.0
  OSSO-CUT-1        2027        28.        30.        0.0        28.        30.        0.0
  OSSO-CUT-1        2028        29.        32.        0.0        29.        32.        0.0
  OSSO-CUT-1        2029        28.        31.        0.0        28.        31.        0.0
  OSSO-CUT-1        2030        10.        31.        0.0        10.        31.        0.0
  OSSO-CUT-1        2031        10.        31.        0.0        10.        31.        0.0
  OSSO-CUT-1        2032         9.        31.        0.0         9.        31.        0.0
  OSSO-CUT-1        2033        13.        27.        0.0        13.        27.        0.0
  OSSO-CUT-1        2034        13.        28.        0.0        13.        28.        0.0
  OSSO-CUT-1        2035        12.        27.        0.0        12.        27.        0.0
  OSSO-CUT-1        2036        17.        29.        0.0        17.        29.        0.0
  OSSO-CUT-1        2037        17.        31.        0.0        17.        31.        0.0
  OSSO-CUT-1        2038        16.        31.        0.0        16.        31.        0.0
  OSSO-CUT-1        2039        20.        28.        0.0        20.        28.        0.0
  OSSO-CUT-1        2040        19.        28.        0.0        19.        28.        0.0
  OSSO-CUT-1        2041        20.        27.        0.0        20.        27.        0.0
  OSSO-CUT-1        2042        21.        27.        0.0        21.        27.        0.0
  OSSO-CUT-1        2043        20.        31.        0.0        20.        31.        0.0
  OSSO-CUT-1        2044        19.        31.        0.0        19.        31.        0.0
  OSSO-CUT-1        2045        23.        28.        0.0        23.        28.        0.0
  OSSO-CUT-1        2046        24.        28.        0.0        24.        28.        0.0
  OSSO-CUT-1        2047        24.        29.        0.0        24.        29.        0.0
  OSSO-CUT-1        2048        23.        29.        0.0        23.        29.        0.0
  OSSO-CUT-1        2049        21.        29.        0.0        21.        29.        0.0
  OSSO-CUT-1        2050        22.        28.        0.0        22.        28.        0.0
  OSSO-CUT-1        2051        22.        29.        0.0        22.        29.        0.0
  OSSO-CUT-1        2052        15.        24.        0.0        15.        24.        0.0
  OSSO-CUT-1        2053        16.        24.        0.0        16.        24.        0.0
  OSSO-CUT-1        2054        16.        25.        0.0        16.        25.        0.0
  OSSO-CUT-1        2055        15.        25.        0.0        15.        25.        0.0
  OSSO-CUT-1        2056        20.        24.        0.0        20.        24.        0.0
  OSSO-CUT-1        2057        20.        25.        0.0        20.        25.        0.0
  OSSO-CUT-1        2058        19.        25.        0.0        19.        25.        0.0
  OSSO-CUT-1        2059        19.        24.        0.0        19.        24.        0.0
  OSSO-CUT-1        2060        21.        26.        0.0        21.        26.        0.0
  OSSO-CUT-1        2061        21.        25.        0.0        21.        25.        0.0
  OSSO-CUT-1        2062        22.        25.        0.0        22.        25.        0.0
  OSSO-CUT-1        2063        22.        26.        0.0        22.        26.        0.0
  OSSO-CUT-1        2064        22.        26.        0.0        22.        26.        0.0
  OSSO-CUT-1        2065        21.        27.        0.0        21.        27.        0.0
  OSSO-CUT-1        2066        21.        26.        0.0        21.        26.        0.0
  OSSO-CUT-1        2067        19.        26.        0.0        20.        26.        0.0
  OSSO-CUT-1        2068        19.        27.        0.0        19.        27.        0.0
  OSSO-CUT-1        2069        18.        26.        0.0        18.        26.        0.0
  OSSO-CUT-1        2070        20.        23.        0.0        20.        23.        0.0
  OSSO-CUT-1        2071        19.        23.        0.0        19.        23.        0.0
  OSSO-CUT-1        2072        20.        22.        0.0        20.        22.        0.0
  OSSO-CUT-1        2073        23.        22.        0.0        23.        22.        0.0
  OSSO-CUT-1        2074        22.        21.        0.0        22.        21.        0.0
  OSSO-CUT-1        2075        23.        21.        0.0        23.        21.        0.0
  OSSO-CUT-1        2076        24.        22.        0.0        24.        22.        0.0
  OSSO-CUT-1        2077        24.        23.        0.0        24.        23.        0.0
  OSSO-CUT-1        2078        23.        24.        0.0        23.        24.        0.0
  OSSO-CUT-1        2079        22.        23.        0.0        22.        23.        0.0
  OSSO-CUT-1        2080        30.        21.        0.0        30.        21.        0.0
  OSSO-CUT-1        2081        29.        22.        0.0        29.        22.        0.0
  OSSO-CUT-1        2082        28.        22.        0.0        28.        22.        0.0
  OSSO-CUT-1        2083        27.        23.        0.0        27.        23.        0.0
  OSSO-CUT-1        2084        26.        23.        0.0        26.        23.        0.0
  OSSO-CUT-1        2085        27.        22.        0.0        27.        22.        0.0
  OSSO-CUT-1        2086        17.        21.        0.0        17.        21.        0.0
  OSSO-CUT-1        2087        17.        22.        0.0        17.        22.        0.0
  OSSO-CUT-1        2088        16.        21.        0.0        16.        21.        0.0
  OSSO-CUT-1        2089        17.        23.        0.0        17.        23.        0.0
  OSSO-CUT-1        2090        17.        24.        0.0        17.        24.        0.0
  OSSO-CUT-1        2091        21.        18.        0.0        21.        18.        0.0
  OSSO-CUT-1        2092        22.        18.        0.0        22.        18.        0.0
  OSSO-CUT-1        2093        22.        19.        0.0        22.        19.        0.0
  OSSO-CUT-1        2094        21.        19.        0.0        21.        19.        0.0
  OSSO-CUT-1        2095        23.        20.        0.0        23.        20.        0.0
  OSSO-CUT-1        2096        22.        20.        0.0        22.        20.        0.0
  OSSO-CUT-1        2097        23.        19.        0.0        23.        19.        0.0
  OSSO-CUT-1        2098        30.        15.        0.0        30.        15.        0.0
  OSSO-CUT-1        2099        31.        16.        0.0        31.        16.        0.0
  OSSO-CUT-1        2100        27.        19.        0.0        27.        19.        0.0
  OSSO-CUT-1        2101        26.        20.        0.0        26.        20.        0.0
  OSSO-CUT-1        2102        26.        18.        0.0        26.        18.        0.0
  OSSO-CUT-1        2103        26.  -326.E-03        0.0        26.  -327.E-03        0.0
  OSSO-CUT-1        2104        27.        -1.        0.0        27.        -1.        0.0
  OSSO-CUT-1        2105        28.  -300.E-03        0.0        28.  -301.E-03        0.0
  OSSO-CUT-1        2106        27.   413.E-03        0.0        27.   412.E-03        0.0
  OSSO-CUT-1        2107        20.        -2.        0.0        20.        -2.        0.0
  OSSO-CUT-1        2108        21.        -2.        0.0        21.        -2.        0.0
  OSSO-CUT-1        2109        19.        -5.        0.0        19.        -5.        0.0
  OSSO-CUT-1        2110        19.        -4.        0.0        19.        -4.        0.0
  OSSO-CUT-1        2111        18.        -4.        0.0        18.        -4.        0.0
  OSSO-CUT-1        2112        18.        -5.        0.0        18.        -5.        0.0
  OSSO-CUT-1        2113        20.        -7.        0.0        20.        -7.        0.0
  OSSO-CUT-1        2114        19.        -8.        0.0        19.        -8.        0.0
  OSSO-CUT-1        2115        20.        -8.        0.0        20.        -8.        0.0
  OSSO-CUT-1        2116        20.        -8.        0.0        20.        -8.        0.0
  OSSO-CUT-1        2117        19.       -11.        0.0        19.       -11.        0.0
  OSSO-CUT-1        2118        19.       -11.        0.0        19.       -11.        0.0
  OSSO-CUT-1        2119        19.       -10.        0.0        19.       -10.        0.0
  OSSO-CUT-1        2120        18.       -10.        0.0        18.       -10.        0.0
  OSSO-CUT-1        2121        21.         2.        0.0        21.         2.        0.0
  OSSO-CUT-1        2122        22.         3.        0.0        22.         3.        0.0
  OSSO-CUT-1        2123        21.         3.        0.0        21.         3.        0.0
  OSSO-CUT-1        2124        20.         1.        0.0        20.         1.        0.0
  OSSO-CUT-1        2125        19.         1.        0.0        19.         1.        0.0
  OSSO-CUT-1        2126        20.   446.E-03        0.0        20.   445.E-03        0.0
  OSSO-CUT-1        2127        25.  -375.E-03        0.0        25.  -377.E-03        0.0
  OSSO-CUT-1        2128        24.   331.E-03        0.0        24.   330.E-03        0.0
  OSSO-CUT-1        2129        23.  -405.E-03        0.0        23.  -406.E-03        0.0
  OSSO-CUT-1        2130        24.        -1.        0.0        24.        -1.        0.0
  OSSO-CUT-1        2131        -5.        -8.        0.0        -5.        -8.        0.0
  OSSO-CUT-1        2132        -5.        -8.        0.0        -5.        -8.        0.0
  OSSO-CUT-1        2133        -3.        -6.        0.0        -3.        -6.        0.0
  OSSO-CUT-1        2134        -2.        -5.        0.0        -2.        -5.        0.0
  OSSO-CUT-1        2135        -3.        -4.        0.0        -3.        -4.        0.0
  OSSO-CUT-1        2136        -3.        -1.        0.0        -3.        -1.        0.0
  OSSO-CUT-1        2137        -4.        -2.        0.0        -4.        -2.        0.0
  OSSO-CUT-1        2138        -3.        -2.        0.0        -3.        -2.        0.0
  OSSO-CUT-1        2139        -4.  -243.E-03        0.0        -4.  -243.E-03        0.0
  OSSO-CUT-1        2140        -4.   669.E-03        0.0        -4.   669.E-03        0.0
  OSSO-CUT-1        2141        -5.   279.E-03        0.0        -5.   278.E-03        0.0
  OSSO-CUT-1        2142        -5.  -634.E-03        0.0        -5.  -634.E-03        0.0
  OSSO-CUT-1        2143  -345.E-03        -6.        0.0  -343.E-03        -6.        0.0
  OSSO-CUT-1        2144        -1.        -6.        0.0        -1.        -6.        0.0
  OSSO-CUT-1        2145  -346.E-03        -7.        0.0  -344.E-03        -7.        0.0
  OSSO-CUT-1        2146   368.E-03        -6.        0.0   370.E-03        -6.        0.0
  OSSO-CUT-1        2147        -1.        -5.        0.0        -1.        -5.        0.0
  OSSO-CUT-1        2148   401.E-03        -5.        0.0   403.E-03        -5.        0.0
  OSSO-CUT-1        2149  -270.E-03        -5.        0.0  -268.E-03        -5.        0.0
  OSSO-CUT-1        2150  -128.E-03        -1.        0.0  -125.E-03        -1.        0.0
  OSSO-CUT-1        2151   246.E-03        -2.        0.0   249.E-03        -2.        0.0
  OSSO-CUT-1        2152         1.        -2.        0.0         1.        -2.        0.0
  OSSO-CUT-1        2153   712.E-03        -1.        0.0   715.E-03        -1.        0.0
  OSSO-CUT-1        2154  -422.E-03         2.        0.0  -419.E-03         2.        0.0
  OSSO-CUT-1        2155        -1.         2.        0.0        -1.         2.        0.0
  OSSO-CUT-1        2156        -1.         1.        0.0        -1.         1.        0.0
  OSSO-CUT-1        2157  -243.E-03         1.        0.0  -240.E-03         1.        0.0
  OSSO-CUT-1        2158         4.        -6.        0.0         4.        -6.        0.0
  OSSO-CUT-1        2159         3.        -6.        0.0         3.        -6.        0.0
  OSSO-CUT-1        2160         4.        -7.        0.0         4.        -7.        0.0
  OSSO-CUT-1        2161         4.        -7.        0.0         4.        -7.        0.0
  OSSO-CUT-1        2162         2.        -8.        0.0         2.        -8.        0.0
  OSSO-CUT-1        2163         3.        -7.        0.0         3.        -7.        0.0
  OSSO-CUT-1        2164         2.        -7.        0.0         2.        -7.        0.0
  OSSO-CUT-1        2165         2.        -7.        0.0         2.        -7.        0.0
  OSSO-CUT-1        2166         4.        -9.        0.0         4.        -9.        0.0
  OSSO-CUT-1        2167         4.        -8.        0.0         4.        -8.        0.0
  OSSO-CUT-1        2168         3.        -8.        0.0         3.        -8.        0.0
  OSSO-CUT-1        2169         3.        -9.        0.0         3.        -9.        0.0
  OSSO-CUT-1        2170        10.        -9.        0.0        10.        -9.        0.0
  OSSO-CUT-1        2171         9.        -9.        0.0         9.        -9.        0.0
  OSSO-CUT-1        2172         9.       -10.        0.0         9.       -10.        0.0
  OSSO-CUT-1        2173        10.       -10.        0.0        10.       -10.        0.0
  OSSO-CUT-1        2174        14.       -10.        0.0        14.       -10.        0.0
  OSSO-CUT-1        2175        13.       -10.        0.0        13.       -10.        0.0
  OSSO-CUT-1        2176        13.       -11.        0.0        13.       -11.        0.0
  OSSO-CUT-1        2177        14.       -11.        0.0        14.       -11.        0.0
  OSSO-CUT-1        2178        15.       -10.        0.0        15.       -10.        0.0
  OSSO-CUT-1        2179        15.        -9.        0.0        15.        -9.        0.0
  OSSO-CUT-1        2180        14.        -9.        0.0        14.        -9.        0.0
  OSSO-CUT-1        2181        16.        -7.        0.0        16.        -7.        0.0
  OSSO-CUT-1        2182        15.        -8.        0.0        15.        -8.        0.0
  OSSO-CUT-1        2183        16.        -8.        0.0        16.        -8.        0.0
  OSSO-CUT-1        2184        16.        -8.        0.0        16.        -8.        0.0
  OSSO-CUT-1        2185        17.        -6.        0.0        17.        -6.        0.0
  OSSO-CUT-1        2186        16.        -6.        0.0        16.        -6.        0.0
  OSSO-CUT-1        2187        17.        -7.        0.0        17.        -7.        0.0
  OSSO-CUT-1        2188        18.        -7.        0.0        18.        -7.        0.0
  OSSO-CUT-1        2189         7.        -7.        0.0         7.        -7.        0.0
  OSSO-CUT-1        2190         6.        -7.        0.0         6.        -7.        0.0
  OSSO-CUT-1        2191         6.        -8.        0.0         6.        -8.        0.0
  OSSO-CUT-1        2192         7.        -8.        0.0         7.        -8.        0.0
  OSSO-CUT-1        2193         3.        -3.        0.0         3.        -3.        0.0
  OSSO-CUT-1        2194         3.        -3.        0.0         3.        -3.        0.0
  OSSO-CUT-1        2195         2.        -3.        0.0         2.        -3.        0.0
  OSSO-CUT-1        2196         2.        -4.        0.0         2.        -4.        0.0
  OSSO-CUT-1        2197         4.        -4.        0.0         4.        -4.        0.0
  OSSO-CUT-1        2198         4.        -3.        0.0         4.        -3.        0.0
  OSSO-CUT-1        2199         3.        -4.        0.0         3.        -4.        0.0
  OSSO-CUT-1        2200        10.        -8.        0.0        10.        -8.        0.0
  OSSO-CUT-1        2201        11.        -8.        0.0        11.        -8.        0.0
  OSSO-CUT-1        2202        11.        -7.        0.0        11.        -7.        0.0
  OSSO-CUT-1        2203        10.        -7.        0.0        10.        -7.        0.0
  OSSO-CUT-1        2204         7.        -5.        0.0         7.        -5.        0.0
  OSSO-CUT-1        2205         6.        -4.        0.0         6.        -4.        0.0
  OSSO-CUT-1        2206         5.        -4.        0.0         5.        -4.        0.0
  OSSO-CUT-1        2207         6.        -5.        0.0         6.        -5.        0.0
  OSSO-CUT-1        2208         4.  -896.E-03        0.0         4.  -897.E-03        0.0
  OSSO-CUT-1        2209         3.        -1.        0.0         3.        -1.        0.0
  OSSO-CUT-1        2210         4.        -1.        0.0         4.        -1.        0.0
  OSSO-CUT-1        2211         3.        -2.        0.0         3.        -2.        0.0
  OSSO-CUT-1        2212         4.        -2.        0.0         4.        -2.        0.0
  OSSO-CUT-1        2213         3.        -1.        0.0         3.        -1.        0.0
  OSSO-CUT-1        2214         6.        -6.        0.0         6.        -6.        0.0
  OSSO-CUT-1        2215         5.        -5.        0.0         5.        -5.        0.0
  OSSO-CUT-1        2216         5.        -6.        0.0         5.        -6.        0.0
  OSSO-CUT-1        2217         8.        -6.        0.0         8.        -6.        0.0
  OSSO-CUT-1        2218         9.        -6.        0.0         9.        -6.        0.0
  OSSO-CUT-1        2219         9.        -5.        0.0         9.        -5.        0.0
  OSSO-CUT-1        2220         8.        -5.        0.0         8.        -5.        0.0
  OSSO-CUT-1        2221        10.        -3.        0.0        10.        -3.        0.0
  OSSO-CUT-1        2222        10.        -4.        0.0        10.        -4.        0.0
  OSSO-CUT-1        2223        11.        -4.        0.0        11.        -4.        0.0
  OSSO-CUT-1        2224        10.  -549.E-03        0.0        10.  -549.E-03        0.0
  OSSO-CUT-1        2225        10.   559.E-03        0.0        10.   558.E-03        0.0
  OSSO-CUT-1        2226         9.  -457.E-03        0.0         9.  -458.E-03        0.0
  OSSO-CUT-1        2227        15.        -6.        0.0        15.        -6.        0.0
  OSSO-CUT-1        2228        14.        -5.        0.0        14.        -5.        0.0
  OSSO-CUT-1        2229        14.        -7.        0.0        14.        -7.        0.0
  OSSO-CUT-1        2230        14.        -7.        0.0        14.        -7.        0.0
  OSSO-CUT-1        2231        13.        -9.        0.0        13.        -9.        0.0
  OSSO-CUT-1        2232        12.        -8.        0.0        12.        -8.        0.0
  OSSO-CUT-1        2233        12.        -9.        0.0        12.        -9.        0.0
  OSSO-CUT-1        2234        20.        -7.        0.0        20.        -7.        0.0
  OSSO-CUT-1        2235        20.        -6.        0.0        20.        -6.        0.0
  OSSO-CUT-1        2236        19.        -6.        0.0        19.        -6.        0.0
  OSSO-CUT-1        2237        23.        -7.        0.0        23.        -7.        0.0
  OSSO-CUT-1        2238        23.        -6.        0.0        23.        -6.        0.0
  OSSO-CUT-1        2239        23.        -7.        0.0        23.        -7.        0.0
  OSSO-CUT-1        2240        22.        -6.        0.0        22.        -6.        0.0
  OSSO-CUT-1        2241        22.        -7.        0.0        22.        -7.        0.0
  OSSO-CUT-1        2242        22.        -8.        0.0        22.        -8.        0.0
  OSSO-CUT-1        2243         8.        -2.        0.0         8.        -2.        0.0
  OSSO-CUT-1        2244         8.        -3.        0.0         8.        -3.        0.0
  OSSO-CUT-1        2245        10.        -2.        0.0        10.        -2.        0.0
  OSSO-CUT-1        2246         6.        -3.        0.0         6.        -3.        0.0
  OSSO-CUT-1        2247         7.        -3.        0.0         7.        -3.        0.0
  OSSO-CUT-1        2248         7.        -2.        0.0         7.        -2.        0.0
  OSSO-CUT-1        2249  -550.E-03        -3.        0.0  -548.E-03        -3.        0.0
  OSSO-CUT-1        2250   -82.E-03        -3.        0.0   -80.E-03        -3.        0.0
  OSSO-CUT-1        2251   715.E-03        -3.        0.0   717.E-03        -3.        0.0
  OSSO-CUT-1        2252         2.         3.        0.0         2.         3.        0.0
  OSSO-CUT-1        2253         1.         3.        0.0         1.         3.        0.0
  OSSO-CUT-1        2254         1.         2.        0.0         1.         2.        0.0
  OSSO-CUT-1        2255         2.         2.        0.0         2.         2.        0.0
  OSSO-CUT-1        2256         1.         4.        0.0         1.         4.        0.0
  OSSO-CUT-1        2257         2.         4.        0.0         2.         4.        0.0
  OSSO-CUT-1        2258         2.         5.        0.0         2.         5.        0.0
  OSSO-CUT-1        2259         1.         5.        0.0         1.         5.        0.0
  OSSO-CUT-1        2260        -3.         4.        0.0        -3.         4.        0.0
  OSSO-CUT-1        2261        -3.         3.        0.0        -3.         3.        0.0
  OSSO-CUT-1        2262        -2.         3.        0.0        -2.         3.        0.0
  OSSO-CUT-1        2263        -2.         4.        0.0        -2.         4.        0.0
  OSSO-CUT-1        2264        -5.         5.        0.0        -5.         5.        0.0
  OSSO-CUT-1        2265        -5.         5.        0.0        -5.         5.        0.0
  OSSO-CUT-1        2266        -6.         4.        0.0        -6.         4.        0.0
  OSSO-CUT-1        2267        -5.         4.        0.0        -5.         4.        0.0
  OSSO-CUT-1        2268        -3.         2.        0.0        -3.         2.        0.0
  OSSO-CUT-1        2269   559.E-03         2.        0.0   562.E-03         2.        0.0
  OSSO-CUT-1        2270   624.E-03         3.        0.0   626.E-03         3.        0.0
  OSSO-CUT-1        2271  -358.E-03         3.        0.0  -355.E-03         3.        0.0
  OSSO-CUT-1        2272         4.         6.        0.0         4.         6.        0.0
  OSSO-CUT-1        2273         3.         7.        0.0         3.         7.        0.0
  OSSO-CUT-1        2274         3.         6.        0.0         3.         6.        0.0
  OSSO-CUT-1        2275        -2.         6.        0.0        -2.         6.        0.0
  OSSO-CUT-1        2276        -2.         5.        0.0        -2.         5.        0.0
  OSSO-CUT-1        2277        -1.         5.        0.0        -1.         5.        0.0
  OSSO-CUT-1        2278        -5.         7.        0.0        -5.         7.        0.0
  OSSO-CUT-1        2279        -5.         6.        0.0        -5.         6.        0.0
  OSSO-CUT-1        2280        -4.         6.        0.0        -4.         6.        0.0
  OSSO-CUT-1        2281        -4.         7.        0.0        -4.         7.        0.0
  OSSO-CUT-1        2282        -9.         6.        0.0        -9.         6.        0.0
  OSSO-CUT-1        2283        -9.         7.        0.0        -9.         7.        0.0
  OSSO-CUT-1        2284       -10.         7.        0.0       -10.         7.        0.0
  OSSO-CUT-1        2285       -14.         6.        0.0       -14.         6.        0.0
  OSSO-CUT-1        2286       -13.         6.        0.0       -13.         6.        0.0
  OSSO-CUT-1        2287       -13.         7.        0.0       -13.         7.        0.0
  OSSO-CUT-1        2288       -14.         7.        0.0       -14.         7.        0.0
  OSSO-CUT-1        2289       -15.         6.        0.0       -15.         6.        0.0
  OSSO-CUT-1        2290       -15.         5.        0.0       -15.         5.        0.0
  OSSO-CUT-1        2291         2.        10.        0.0         2.        10.        0.0
  OSSO-CUT-1        2292         2.        12.        0.0         2.        12.        0.0
  OSSO-CUT-1        2293   532.E-03        12.        0.0   535.E-03        12.        0.0
  OSSO-CUT-1        2294   900.E-03         8.        0.0   903.E-03         8.        0.0
  OSSO-CUT-1        2295         2.         8.        0.0         2.         8.        0.0
  OSSO-CUT-1        2296         2.         9.        0.0         2.         9.        0.0
  OSSO-CUT-1        2297        -8.        12.        0.0        -8.        12.        0.0
  OSSO-CUT-1        2298        -8.        11.        0.0        -8.        11.        0.0
  OSSO-CUT-1        2299        -4.         9.        0.0        -4.         9.        0.0
  OSSO-CUT-1        2300        -3.         8.        0.0        -3.         8.        0.0
  OSSO-CUT-1        2301        -3.         9.        0.0        -3.         9.        0.0
  OSSO-CUT-1        2302        -8.         6.        0.0        -8.         6.        0.0
  OSSO-CUT-1        2303        -8.         5.        0.0        -8.         5.        0.0
  OSSO-CUT-1        2304        -7.         5.        0.0        -7.         5.        0.0
  OSSO-CUT-1        2305        -2.        13.        0.0        -2.        13.        0.0
  OSSO-CUT-1        2306        -2.        12.        0.0        -2.        12.        0.0
  OSSO-CUT-1        2307        -1.        12.        0.0        -1.        12.        0.0
  OSSO-CUT-1        2308        -2.        13.        0.0        -2.        13.        0.0
  OSSO-CUT-1        2309  -550.E-03        14.        0.0  -547.E-03        14.        0.0
  OSSO-CUT-1        2310        -2.        14.        0.0        -2.        14.        0.0
  OSSO-CUT-1        2311  -509.E-03        13.        0.0  -506.E-03        13.        0.0
  OSSO-CUT-1        2312         6.        -9.        0.0         6.        -9.        0.0
  OSSO-CUT-1        2313         6.       -10.        0.0         6.       -10.        0.0
  OSSO-CUT-1        2314         7.       -10.        0.0         7.       -10.        0.0
  OSSO-CUT-1        2315         7.        -9.        0.0         7.        -9.        0.0
  OSSO-CUT-1        2316        11.        -8.        0.0        11.        -8.        0.0
  OSSO-CUT-1        2317        11.        -9.        0.0        11.        -9.        0.0
  OSSO-CUT-1        2318        17.        -9.        0.0        17.        -9.        0.0
  OSSO-CUT-1        2319        17.        -8.        0.0        17.        -8.        0.0
  OSSO-CUT-1        2320        23.       -10.        0.0        23.       -10.        0.0
  OSSO-CUT-1        2321        23.        -9.        0.0        23.        -9.        0.0
  OSSO-CUT-1        2322        22.       -10.        0.0        22.       -10.        0.0
  OSSO-CUT-1        2323        24.        -9.        0.0        24.        -9.        0.0
  OSSO-CUT-1        2324        23.        -8.        0.0        23.        -8.        0.0
  OSSO-CUT-1        2325        22.        -8.        0.0        22.        -8.        0.0
  OSSO-CUT-1        2326        21.       -13.        0.0        21.       -13.        0.0
  OSSO-CUT-1        2327        21.       -12.        0.0        21.       -12.        0.0
  OSSO-CUT-1        2328        20.       -13.        0.0        20.       -13.        0.0
  OSSO-CUT-1        2329        17.       -13.        0.0        17.       -13.        0.0
  OSSO-CUT-1        2330        17.       -13.        0.0        17.       -13.        0.0
  OSSO-CUT-1        2331        18.       -13.        0.0        18.       -13.        0.0
  OSSO-CUT-1        2332        17.       -12.        0.0        17.       -12.        0.0
  OSSO-CUT-1        2333        13.       -12.        0.0        13.       -12.        0.0
  OSSO-CUT-1        2334        13.       -12.        0.0        13.       -12.        0.0
  OSSO-CUT-1        2335        13.       -12.        0.0        13.       -12.        0.0
  OSSO-CUT-1        2336         6.       -14.        0.0         6.       -14.        0.0
  OSSO-CUT-1        2337         5.       -14.        0.0         5.       -14.        0.0
  OSSO-CUT-1        2338         6.       -14.        0.0         6.       -14.        0.0
  OSSO-CUT-1        2339  -354.E-03       -16.        0.0  -352.E-03       -16.        0.0
  OSSO-CUT-1        2340   472.E-03       -15.        0.0   474.E-03       -15.        0.0
  OSSO-CUT-1        2341         2.       -17.        0.0         2.       -17.        0.0
  OSSO-CUT-1        2342         3.       -18.        0.0         3.       -18.        0.0
  OSSO-CUT-1        2343         4.       -17.        0.0         4.       -17.        0.0
  OSSO-CUT-1        2344         3.       -16.        0.0         3.       -16.        0.0
  OSSO-CUT-1        2345         6.       -21.        0.0         6.       -21.        0.0
  OSSO-CUT-1        2346         7.       -21.        0.0         7.       -21.        0.0
  OSSO-CUT-1        2347         8.       -21.        0.0         8.       -21.        0.0
  OSSO-CUT-1        2348         7.       -20.        0.0         7.       -20.        0.0
  OSSO-CUT-1        2349        10.       -24.        0.0        10.       -24.        0.0
  OSSO-CUT-1        2350        11.       -22.        0.0        11.       -22.        0.0
  OSSO-CUT-1        2351        10.       -23.        0.0        10.       -23.        0.0
  OSSO-CUT-1        2352         9.       -21.        0.0         9.       -21.        0.0
  OSSO-CUT-1        2353         9.       -22.        0.0         9.       -22.        0.0
  OSSO-CUT-1        2354        10.       -22.        0.0        10.       -22.        0.0
  OSSO-CUT-1        2355        10.       -21.        0.0        10.       -21.        0.0
  OSSO-CUT-1        2356         6.       -16.        0.0         6.       -16.        0.0
  OSSO-CUT-1        2357         6.       -16.        0.0         6.       -16.        0.0
  OSSO-CUT-1        2358         7.       -16.        0.0         7.       -16.        0.0
  OSSO-CUT-1        2359         7.       -16.        0.0         7.       -16.        0.0
  OSSO-CUT-1        2360         3.       -15.        0.0         3.       -15.        0.0
  OSSO-CUT-1        2361         4.       -15.        0.0         4.       -15.        0.0
  OSSO-CUT-1        2362         2.       -14.        0.0         2.       -14.        0.0
  OSSO-CUT-1        2363         2.       -16.        0.0         2.       -16.        0.0
  OSSO-CUT-1        2364         4.       -16.        0.0         4.       -16.        0.0
  OSSO-CUT-1        2365         6.       -14.        0.0         6.       -14.        0.0
  OSSO-CUT-1        2366         6.       -15.        0.0         6.       -15.        0.0
  OSSO-CUT-1        2367         7.       -15.        0.0         7.       -15.        0.0
  OSSO-CUT-1        2368         7.       -14.        0.0         7.       -14.        0.0
  OSSO-CUT-1        2369         8.       -15.        0.0         8.       -15.        0.0
  OSSO-CUT-1        2370         9.       -15.        0.0         9.       -15.        0.0
  OSSO-CUT-1        2371         9.       -14.        0.0         9.       -14.        0.0
  OSSO-CUT-1        2372         8.       -14.        0.0         8.       -14.        0.0
  OSSO-CUT-1        2373  -442.E-03       -19.        0.0  -441.E-03       -19.        0.0
  OSSO-CUT-1        2374   271.E-03       -18.        0.0   272.E-03       -18.        0.0
  OSSO-CUT-1        2375  -422.E-03       -17.        0.0  -420.E-03       -17.        0.0
  OSSO-CUT-1        2376         5.       -20.        0.0         5.       -20.        0.0
  OSSO-CUT-1        2377         4.       -20.        0.0         4.       -20.        0.0
  OSSO-CUT-1        2378         3.       -21.        0.0         3.       -21.        0.0
  OSSO-CUT-1        2379         4.       -21.        0.0         4.       -21.        0.0
  OSSO-CUT-1        2380         5.       -25.        0.0         5.       -25.        0.0
  OSSO-CUT-1        2381         5.       -26.        0.0         5.       -26.        0.0
  OSSO-CUT-1        2382         6.       -26.        0.0         6.       -26.        0.0
  OSSO-CUT-1        2383         6.       -25.        0.0         6.       -25.        0.0
  OSSO-CUT-1        2384         9.       -29.        0.0         9.       -29.        0.0
  OSSO-CUT-1        2385        10.       -28.        0.0        10.       -28.        0.0
  OSSO-CUT-1        2386         9.       -27.        0.0         9.       -27.        0.0
  OSSO-CUT-1        2387         8.       -28.        0.0         8.       -28.        0.0
  OSSO-CUT-1        2388        10.       -25.        0.0        10.       -25.        0.0
  OSSO-CUT-1        2389        10.       -25.        0.0        10.       -25.        0.0
  OSSO-CUT-1        2390        10.       -26.        0.0        10.       -26.        0.0
  OSSO-CUT-1        2391        11.       -25.        0.0        11.       -25.        0.0
  OSSO-CUT-1        2392         7.       -20.        0.0         7.       -20.        0.0
  OSSO-CUT-1        2393         7.       -19.        0.0         7.       -19.        0.0
  OSSO-CUT-1        2394         6.       -19.        0.0         6.       -19.        0.0
  OSSO-CUT-1        2395         6.       -20.        0.0         6.       -20.        0.0
  OSSO-CUT-1        2396        11.       -18.        0.0        11.       -18.        0.0
  OSSO-CUT-1        2397        10.       -18.        0.0        10.       -18.        0.0
  OSSO-CUT-1        2398         9.       -18.        0.0         9.       -18.        0.0
  OSSO-CUT-1        2399         9.       -19.        0.0         9.       -19.        0.0
  OSSO-CUT-1        2400        16.       -21.        0.0        16.       -21.        0.0
  OSSO-CUT-1        2401        17.       -21.        0.0        17.       -21.        0.0
  OSSO-CUT-1        2402        17.       -20.        0.0        17.       -20.        0.0
  OSSO-CUT-1        2403        16.       -20.        0.0        16.       -20.        0.0
  OSSO-CUT-1        2404        14.       -19.        0.0        14.       -19.        0.0
  OSSO-CUT-1        2405        14.       -20.        0.0        14.       -20.        0.0
  OSSO-CUT-1        2406         1.       -21.        0.0         1.       -21.        0.0
  OSSO-CUT-1        2407         2.       -21.        0.0         2.       -21.        0.0
  OSSO-CUT-1        2408   944.E-03       -20.        0.0   946.E-03       -20.        0.0
  OSSO-CUT-1        2409   294.E-03       -21.        0.0   296.E-03       -21.        0.0
  OSSO-CUT-1        2410         3.       -24.        0.0         3.       -24.        0.0
  OSSO-CUT-1        2411         4.       -23.        0.0         4.       -23.        0.0
  OSSO-CUT-1        2412         4.       -22.        0.0         4.       -22.        0.0
  OSSO-CUT-1        2413         3.       -22.        0.0         3.       -22.        0.0
  OSSO-CUT-1        2414         6.       -28.        0.0         6.       -28.        0.0
  OSSO-CUT-1        2415         7.       -28.        0.0         7.       -28.        0.0
  OSSO-CUT-1        2416         6.       -27.        0.0         6.       -27.        0.0
  OSSO-CUT-1        2417         6.       -27.        0.0         6.       -27.        0.0
  OSSO-CUT-1        2418        10.       -30.        0.0        10.       -30.        0.0
  OSSO-CUT-1        2419        10.       -30.        0.0        10.       -30.        0.0
  OSSO-CUT-1        2420        10.       -31.        0.0        10.       -31.        0.0
  OSSO-CUT-1        2421        11.       -30.        0.0        11.       -30.        0.0
  OSSO-CUT-1        2422         2.       -19.        0.0         2.       -19.        0.0
  OSSO-CUT-1        2423         2.       -20.        0.0         2.       -20.        0.0
  OSSO-CUT-1        2424         2.       -20.        0.0         2.       -20.        0.0
  OSSO-CUT-1        2425         3.       -20.        0.0         3.       -20.        0.0
  OSSO-CUT-1        2426        17.       -24.        0.0        17.       -24.        0.0
  OSSO-CUT-1        2427        17.       -23.        0.0        17.       -23.        0.0
  OSSO-CUT-1        2428        16.       -24.        0.0        16.       -24.        0.0
  OSSO-CUT-1        2429        15.       -22.        0.0        15.       -22.        0.0
  OSSO-CUT-1        2430        14.       -22.        0.0        14.       -22.        0.0
  OSSO-CUT-1        2431        14.       -23.        0.0        14.       -23.        0.0
  OSSO-CUT-1        2432        15.       -23.        0.0        15.       -23.        0.0
  OSSO-CUT-1        2433        20.       -19.        0.0        20.       -19.        0.0
  OSSO-CUT-1        2434        19.       -20.        0.0        19.       -20.        0.0
  OSSO-CUT-1        2435        20.       -20.        0.0        20.       -20.        0.0
  OSSO-CUT-1        2436        25.       -19.        0.0        25.       -19.        0.0
  OSSO-CUT-1        2437         2.       -22.        0.0         2.       -22.        0.0
  OSSO-CUT-1        2438   415.E-03       -22.        0.0   416.E-03       -22.        0.0
  OSSO-CUT-1        2439         1.       -23.        0.0         1.       -23.        0.0
  OSSO-CUT-1        2440         2.       -25.        0.0         2.       -25.        0.0
  OSSO-CUT-1        2441   860.E-03       -25.        0.0   861.E-03       -25.        0.0
  OSSO-CUT-1        2442         1.       -26.        0.0         1.       -26.        0.0
  OSSO-CUT-1        2443         2.       -26.        0.0         2.       -26.        0.0
  OSSO-CUT-1        2444         4.       -30.        0.0         4.       -30.        0.0
  OSSO-CUT-1        2445         4.       -31.        0.0         4.       -31.        0.0
  OSSO-CUT-1        2446         5.       -30.        0.0         5.       -30.        0.0
  OSSO-CUT-1        2447         5.       -30.        0.0         5.       -30.        0.0
  OSSO-CUT-1        2448         6.       -32.        0.0         6.       -32.        0.0
  OSSO-CUT-1        2449         7.       -32.        0.0         7.       -32.        0.0
  OSSO-CUT-1        2450         7.       -31.        0.0         7.       -31.        0.0
  OSSO-CUT-1        2451         6.       -31.        0.0         6.       -31.        0.0
  OSSO-CUT-1        2452         7.       -37.        0.0         7.       -37.        0.0
  OSSO-CUT-1        2453         7.       -36.        0.0         7.       -36.        0.0
  OSSO-CUT-1        2454         6.       -36.        0.0         6.       -36.        0.0
  OSSO-CUT-1        2455         7.       -37.        0.0         7.       -37.        0.0
  OSSO-CUT-1        2456         9.       -32.        0.0         9.       -32.        0.0
  OSSO-CUT-1        2457         9.       -33.        0.0         9.       -33.        0.0
  OSSO-CUT-1        2458        10.       -33.        0.0        10.       -33.        0.0
  OSSO-CUT-1        2459        10.       -32.        0.0        10.       -32.        0.0
  OSSO-CUT-1        2460         2.       -23.        0.0         2.       -23.        0.0
  OSSO-CUT-1        2461         3.       -22.        0.0         3.       -22.        0.0
  OSSO-CUT-1        2462         6.       -20.        0.0         6.       -20.        0.0
  OSSO-CUT-1        2463         5.       -21.        0.0         5.       -21.        0.0
  OSSO-CUT-1        2464         6.       -22.        0.0         6.       -22.        0.0
  OSSO-CUT-1        2465        20.       -22.        0.0        20.       -22.        0.0
  OSSO-CUT-1        2466        20.       -22.        0.0        20.       -22.        0.0
  OSSO-CUT-1        2467         1.       -31.        0.0         1.       -31.        0.0
  OSSO-CUT-1        2468         1.       -30.        0.0         1.       -30.        0.0
  OSSO-CUT-1        2469   425.E-03       -30.        0.0   425.E-03       -30.        0.0
  OSSO-CUT-1        2470         3.       -32.        0.0         3.       -32.        0.0
  OSSO-CUT-1        2471         3.       -31.        0.0         3.       -31.        0.0
  OSSO-CUT-1        2472         2.       -31.        0.0         2.       -31.        0.0
  OSSO-CUT-1        2473         2.       -32.        0.0         2.       -32.        0.0
  OSSO-CUT-1        2474         6.       -34.        0.0         6.       -34.        0.0
  OSSO-CUT-1        2475         7.       -34.        0.0         7.       -34.        0.0
  OSSO-CUT-1        2476         6.       -33.        0.0         6.       -33.        0.0
  OSSO-CUT-1        2477         6.       -34.        0.0         6.       -34.        0.0
  OSSO-CUT-1        2478        10.       -39.        0.0        10.       -39.        0.0
  OSSO-CUT-1        2479        10.       -39.        0.0        10.       -39.        0.0
  OSSO-CUT-1        2480        11.       -39.        0.0        11.       -39.        0.0
  OSSO-CUT-1        2481        11.       -35.        0.0        11.       -35.        0.0
  OSSO-CUT-1        2482        10.       -35.        0.0        10.       -35.        0.0
  OSSO-CUT-1        2483        11.       -36.        0.0        11.       -36.        0.0
  OSSO-CUT-1        2484        11.       -35.        0.0        11.       -35.        0.0
  OSSO-CUT-1        2485         3.       -27.        0.0         3.       -27.        0.0
  OSSO-CUT-1        2486         3.       -27.        0.0         3.       -27.        0.0
  OSSO-CUT-1        2487         2.       -27.        0.0         2.       -27.        0.0
  OSSO-CUT-1        2488         2.       -28.        0.0         2.       -28.        0.0
  OSSO-CUT-1        2489         5.       -26.        0.0         5.       -26.        0.0
  OSSO-CUT-1        2490         4.       -25.        0.0         4.       -25.        0.0
  OSSO-CUT-1        2491         4.       -26.        0.0         4.       -26.        0.0
  OSSO-CUT-1        2492        16.       -28.        0.0        16.       -28.        0.0
  OSSO-CUT-1        2493        16.       -30.        0.0        16.       -30.        0.0
  OSSO-CUT-1        2494        17.       -29.        0.0        17.       -29.        0.0
  OSSO-CUT-1        2495        20.       -25.        0.0        20.       -25.        0.0
  OSSO-CUT-1        2496        19.       -25.        0.0        19.       -25.        0.0
  OSSO-CUT-1        2497        19.       -26.        0.0        19.       -26.        0.0
  OSSO-CUT-1        2498        23.       -25.        0.0        23.       -25.        0.0
  OSSO-CUT-1        2499        23.       -26.        0.0        23.       -26.        0.0
  OSSO-CUT-1        2500        24.       -25.        0.0        24.       -25.        0.0
  OSSO-CUT-1        2501         2.       -30.        0.0         2.       -30.        0.0
  OSSO-CUT-1        2502         2.       -30.        0.0         2.       -30.        0.0
  OSSO-CUT-1        2503         3.       -30.        0.0         3.       -30.        0.0
  OSSO-CUT-1        2504         3.       -30.        0.0         3.       -30.        0.0
  OSSO-CUT-1        2505         6.       -29.        0.0         6.       -29.        0.0
  OSSO-CUT-1        2506         6.       -30.        0.0         6.       -30.        0.0
  OSSO-CUT-1        2507         7.       -30.        0.0         7.       -30.        0.0
  OSSO-CUT-1        2508         7.       -29.        0.0         7.       -29.        0.0
  OSSO-CUT-1        2509        16.       -30.        0.0        16.       -30.        0.0
  OSSO-CUT-1        2510        16.       -31.        0.0        16.       -31.        0.0
  OSSO-CUT-1        2511        15.       -33.        0.0        15.       -33.        0.0
  OSSO-CUT-1        2512        15.       -32.        0.0        15.       -32.        0.0
  OSSO-CUT-1        2513        14.       -32.        0.0        14.       -32.        0.0
  OSSO-CUT-1        2514        14.       -33.        0.0        14.       -33.        0.0
  OSSO-CUT-1        2515        21.       -30.        0.0        21.       -30.        0.0
  OSSO-CUT-1        2516        20.       -29.        0.0        20.       -29.        0.0
  OSSO-CUT-1        2517        22.       -29.        0.0        22.       -29.        0.0
  OSSO-CUT-1        2518        22.       -28.        0.0        22.       -28.        0.0
  OSSO-CUT-1        2519        22.       -28.        0.0        22.       -28.        0.0
  OSSO-CUT-1        2520         2.       -33.        0.0         2.       -33.        0.0
  OSSO-CUT-1        2521         3.       -33.        0.0         3.       -33.        0.0
  OSSO-CUT-1        2522         2.       -32.        0.0         2.       -32.        0.0
  OSSO-CUT-1        2523         6.       -31.        0.0         6.       -31.        0.0
  OSSO-CUT-1        2524        16.       -36.        0.0        16.       -36.        0.0
  OSSO-CUT-1        2525        12.       -34.        0.0        12.       -34.        0.0
  OSSO-CUT-1        2526        12.       -34.        0.0        12.       -34.        0.0
  OSSO-CUT-1        2527        11.       -34.        0.0        11.       -34.        0.0
  OSSO-CUT-1        2528        20.       -33.        0.0        20.       -33.        0.0
  OSSO-CUT-1        2529        21.       -32.        0.0        21.       -32.        0.0
  OSSO-CUT-1        2530        19.       -32.        0.0        19.       -32.        0.0
  OSSO-CUT-1        2531        21.       -32.        0.0        21.       -32.        0.0
  OSSO-CUT-1        2532        22.       -31.        0.0        22.       -31.        0.0
  OSSO-CUT-1        2533        22.       -30.        0.0        22.       -30.        0.0
  OSSO-CUT-1        2534  -899.E-03       -36.        0.0  -898.E-03       -36.        0.0
  OSSO-CUT-1        2535  -227.E-03       -36.        0.0  -227.E-03       -36.        0.0
  OSSO-CUT-1        2536   257.E-03       -35.        0.0   257.E-03       -35.        0.0
  OSSO-CUT-1        2537         4.       -36.        0.0         4.       -36.        0.0
  OSSO-CUT-1        2538         4.       -36.        0.0         4.       -36.        0.0
  OSSO-CUT-1        2539         5.       -36.        0.0         5.       -36.        0.0
  OSSO-CUT-1        2540         4.       -35.        0.0         4.       -35.        0.0
  OSSO-CUT-1        2541         6.       -37.        0.0         6.       -37.        0.0
  OSSO-CUT-1        2542         5.       -37.        0.0         5.       -37.        0.0
  OSSO-CUT-1        2543         5.       -37.        0.0         5.       -37.        0.0
  OSSO-CUT-1        2544         5.       -38.        0.0         5.       -38.        0.0
  OSSO-CUT-1        2545        20.       -34.        0.0        20.       -34.        0.0
  OSSO-CUT-1        2546        21.       -34.        0.0        21.       -34.        0.0
  OSSO-CUT-1        2547        19.       -34.        0.0        19.       -34.        0.0
  OSSO-CUT-1        2548        21.       -35.        0.0        21.       -35.        0.0
  OSSO-CUT-1        2549        21.       -33.        0.0        21.       -33.        0.0
  OSSO-CUT-1        2550   221.E-03       -40.        0.0   221.E-03       -40.        0.0
  OSSO-CUT-1        2551         1.       -39.        0.0         1.       -39.        0.0
  OSSO-CUT-1        2552  -408.E-03       -39.        0.0  -408.E-03       -39.        0.0
  OSSO-CUT-1        2553         5.       -39.        0.0         5.       -39.        0.0
  OSSO-CUT-1        2554         5.       -39.        0.0         5.       -39.        0.0
  OSSO-CUT-1        2555         6.       -39.        0.0         6.       -39.        0.0
  OSSO-CUT-1        2556         6.       -40.        0.0         6.       -40.        0.0
  OSSO-CUT-1        2557         9.       -38.        0.0         9.       -38.        0.0
  OSSO-CUT-1        2558         9.       -40.        0.0         9.       -40.        0.0
  OSSO-CUT-1        2559        18.       -39.        0.0        18.       -39.        0.0
  OSSO-CUT-1        2560        19.       -39.        0.0        19.       -39.        0.0
  OSSO-CUT-1        2561        20.       -38.        0.0        20.       -38.        0.0
  OSSO-CUT-1        2562        20.       -37.        0.0        20.       -37.        0.0
  OSSO-CUT-1        2563        20.       -38.        0.0        20.       -38.        0.0
  OSSO-CUT-1        2564        21.       -37.        0.0        21.       -37.        0.0
  OSSO-CUT-1        2565        21.       -36.        0.0        21.       -36.        0.0
  OSSO-CUT-1        2566        14.        23.        0.0        14.        23.        0.0
  OSSO-CUT-1        2567        20.        18.        0.0        20.        18.        0.0
  OSSO-CUT-1        2568        20.        19.        0.0        20.        19.        0.0
  OSSO-CUT-1        2569        19.        18.        0.0        19.        18.        0.0
  OSSO-CUT-1        2570        17.        20.        0.0        17.        20.        0.0
  OSSO-CUT-1        2571        28.        36.        0.0        28.        36.        0.0
  OSSO-CUT-1        2572        29.        37.        0.0        29.        37.        0.0
  OSSO-CUT-1        2573        17.        40.        0.0        17.        40.        0.0
  OSSO-CUT-1        2574        17.        40.        0.0        17.        40.        0.0
  OSSO-CUT-1        2575        16.        40.        0.0        16.        40.        0.0
  OSSO-CUT-1        2576        16.        39.        0.0        16.        39.        0.0
  OSSO-CUT-1        2577        15.        39.        0.0        15.        39.        0.0
  OSSO-CUT-1        2578        16.        39.        0.0        16.        39.        0.0
  OSSO-CUT-1        2579        13.        38.        0.0        13.        38.        0.0
  OSSO-CUT-1        2580        13.        37.        0.0        13.        37.        0.0
  OSSO-CUT-1        2581        12.        37.        0.0        12.        37.        0.0
  OSSO-CUT-1        2582        12.        36.        0.0        12.        36.        0.0
  OSSO-CUT-1        2583        12.        33.        0.0        12.        33.        0.0
  OSSO-CUT-1        2584        11.        33.        0.0        11.        33.        0.0
  OSSO-CUT-1        2585        11.        32.        0.0        11.        32.        0.0
  OSSO-CUT-1        2586        11.        32.        0.0        11.        32.        0.0
  OSSO-CUT-1        2587        10.        32.        0.0        10.        32.        0.0
  OSSO-CUT-1        2588        11.        31.        0.0        11.        31.        0.0
  OSSO-CUT-1        2589        12.        31.        0.0        12.        31.        0.0
  OSSO-CUT-1        2590        14.        26.        0.0        14.        26.        0.0
  OSSO-CUT-1        2591        14.        27.        0.0        14.        27.        0.0
  OSSO-CUT-1        2592        13.        26.        0.0        13.        26.        0.0
  OSSO-CUT-1        2593        20.        16.        0.0        20.        16.        0.0
  OSSO-CUT-1        2594        26.        11.        0.0        26.        11.        0.0
  OSSO-CUT-1        2595        26.        12.        0.0        26.        12.        0.0
  OSSO-CUT-1        2596        25.        11.        0.0        25.        11.        0.0
  OSSO-CUT-1        2597        27.        10.        0.0        27.        10.        0.0
  OSSO-CUT-1        2598        27.        11.        0.0        27.        11.        0.0
  OSSO-CUT-1        2599        26.         6.        0.0        26.         6.        0.0
  OSSO-CUT-1        2600        27.         7.        0.0        27.         7.        0.0
  OSSO-CUT-1        2601        26.         7.        0.0        26.         7.        0.0
  OSSO-CUT-1        2602        20.         2.        0.0        20.         2.        0.0
  OSSO-CUT-1        2603        21.         2.        0.0        21.         2.        0.0
  OSSO-CUT-1        2604        17.  -776.E-03        0.0        17.  -777.E-03        0.0
  OSSO-CUT-1        2605        18.        -2.        0.0        18.        -2.        0.0
  OSSO-CUT-1        2606        11.  -590.E-03        0.0        11.  -591.E-03        0.0
  OSSO-CUT-1        2607        12.   430.E-03        0.0        12.   429.E-03        0.0
  OSSO-CUT-1        2608        11.   485.E-03        0.0        11.   485.E-03        0.0
  OSSO-CUT-1        2609         8.         3.        0.0         8.         3.        0.0
  OSSO-CUT-1        2610         9.         4.        0.0         9.         4.        0.0
  OSSO-CUT-1        2611         7.         6.        0.0         7.         6.        0.0
  OSSO-CUT-1        2612         6.         6.        0.0         6.         6.        0.0
  OSSO-CUT-1        2613         6.         7.        0.0         6.         7.        0.0
  OSSO-CUT-1        2614         5.         6.        0.0         5.         6.        0.0
  OSSO-CUT-1        2615         4.         9.        0.0         4.         9.        0.0
  OSSO-CUT-1        2616         3.         9.        0.0         3.         9.        0.0
  OSSO-CUT-1        2617         3.         8.        0.0         3.         8.        0.0
  OSSO-CUT-1        2618  -489.E-03        12.        0.0  -486.E-03        12.        0.0
  OSSO-CUT-1        2619   512.E-03        13.        0.0   515.E-03        13.        0.0
  OSSO-CUT-1        2620        -4.        18.        0.0        -4.        18.        0.0
  OSSO-CUT-1        2621        -5.        18.        0.0        -5.        18.        0.0
  OSSO-CUT-1        2622        -5.        17.        0.0        -5.        17.        0.0
  OSSO-CUT-1        2623        -7.        15.        0.0        -7.        15.        0.0
  OSSO-CUT-1        2624        -6.        16.        0.0        -6.        16.        0.0
  OSSO-CUT-1        2625        -7.        16.        0.0        -7.        16.        0.0
  OSSO-CUT-1        2626        -8.        15.        0.0        -8.        15.        0.0
  OSSO-CUT-1        2627        -8.        14.        0.0        -8.        14.        0.0
  OSSO-CUT-1        2628        -7.        14.        0.0        -7.        14.        0.0
  OSSO-CUT-1        2629       -13.        12.        0.0       -13.        12.        0.0
  OSSO-CUT-1        2630       -13.        11.        0.0       -13.        11.        0.0
  OSSO-CUT-1        2631       -17.         9.        0.0       -17.         9.        0.0
  OSSO-CUT-1        2632       -17.         7.        0.0       -17.         7.        0.0
  OSSO-CUT-1        2633       -16.         7.        0.0       -16.         7.        0.0
  OSSO-CUT-1        2634       -16.         6.        0.0       -16.         6.        0.0
  OSSO-CUT-1        2635       -15.         7.        0.0       -15.         7.        0.0
  OSSO-CUT-1        2636       -13.         3.        0.0       -13.         3.        0.0
  OSSO-CUT-1        2637        -8.         4.        0.0        -8.         4.        0.0
  OSSO-CUT-1        2638        -8.   -76.E-03        0.0        -8.   -76.E-03        0.0
  OSSO-CUT-1        2639        -7.   865.E-03        0.0        -7.   865.E-03        0.0
  OSSO-CUT-1        2640        -7.        -2.        0.0        -7.        -2.        0.0
  OSSO-CUT-1        2641        -6.        -2.        0.0        -6.        -2.        0.0
  OSSO-CUT-1        2642        -6.        -3.        0.0        -6.        -3.        0.0
  OSSO-CUT-1        2643        -5.        -2.        0.0        -5.        -2.        0.0
  OSSO-CUT-1        2644        -4.       -11.        0.0        -4.       -11.        0.0
  OSSO-CUT-1        2645        -3.       -10.        0.0        -3.       -10.        0.0
  OSSO-CUT-1        2646        -4.       -10.        0.0        -4.       -10.        0.0
  OSSO-CUT-1        2647        -5.       -11.        0.0        -5.       -11.        0.0
  OSSO-CUT-1        2648        -4.       -12.        0.0        -4.       -12.        0.0
  OSSO-CUT-1        2649        -3.       -17.        0.0        -3.       -17.        0.0
  OSSO-CUT-1        2650        -3.       -16.        0.0        -3.       -16.        0.0
  OSSO-CUT-1        2651        -4.       -16.        0.0        -4.       -16.        0.0
  OSSO-CUT-1        2652        -4.       -18.        0.0        -4.       -18.        0.0
  OSSO-CUT-1        2653        -4.       -21.        0.0        -4.       -21.        0.0
  OSSO-CUT-1        2654        -2.       -21.        0.0        -2.       -21.        0.0
  OSSO-CUT-1        2655        -4.       -24.        0.0        -4.       -24.        0.0
  OSSO-CUT-1        2656        -2.       -24.        0.0        -2.       -24.        0.0
  OSSO-CUT-1        2657        -4.       -27.        0.0        -4.       -27.        0.0
  OSSO-CUT-1        2658        -3.       -28.        0.0        -3.       -28.        0.0
  OSSO-CUT-1        2659        -2.       -27.        0.0        -2.       -27.        0.0
  OSSO-CUT-1        2660        -4.       -28.        0.0        -4.       -28.        0.0
  OSSO-CUT-1        2661        -4.       -31.        0.0        -4.       -31.        0.0
  OSSO-CUT-1        2662        -3.       -32.        0.0        -3.       -32.        0.0
  OSSO-CUT-1        2663        -2.       -31.        0.0        -2.       -31.        0.0
  OSSO-CUT-1        2664        -3.       -34.        0.0        -3.       -34.        0.0
  OSSO-CUT-1        2665        -4.       -34.        0.0        -4.       -34.        0.0
  OSSO-CUT-1        2666        -2.       -34.        0.0        -2.       -34.        0.0
  OSSO-CUT-1        2667        -1.       -38.        0.0        -1.       -38.        0.0
  OSSO-CUT-1        2668        -2.       -39.        0.0        -2.       -39.        0.0
  OSSO-CUT-1        2669        -1.       -39.        0.0        -1.       -39.        0.0
  OSSO-CUT-1        2670        -4.       -39.        0.0        -4.       -39.        0.0
  OSSO-CUT-1        2671        -1.       -41.        0.0        -1.       -41.        0.0
  OSSO-CUT-1        2672        -2.       -42.        0.0        -2.       -42.        0.0
  OSSO-CUT-1        2673         1.       -42.        0.0         1.       -42.        0.0
  OSSO-CUT-1        2674         6.       -41.        0.0         6.       -41.        0.0
  OSSO-CUT-1        2675         5.       -42.        0.0         5.       -42.        0.0
  OSSO-CUT-1        2676         6.       -42.        0.0         6.       -42.        0.0
  OSSO-CUT-1        2677         9.       -41.        0.0         9.       -41.        0.0
  OSSO-CUT-1        2678         9.       -42.        0.0         9.       -42.        0.0
  OSSO-CUT-1        2679        11.       -41.        0.0        11.       -41.        0.0
  OSSO-CUT-1        2680        12.       -42.        0.0        12.       -42.        0.0
  OSSO-CUT-1        2681        16.       -41.        0.0        16.       -41.        0.0
  OSSO-CUT-1        2682        16.       -42.        0.0        16.       -42.        0.0
  OSSO-CUT-1        2683        23.       -42.        0.0        23.       -42.        0.0
  OSSO-CUT-1        2684        22.       -41.        0.0        22.       -41.        0.0
  OSSO-CUT-1        2685        22.       -42.        0.0        22.       -42.        0.0
  OSSO-CUT-1        2686        21.       -39.        0.0        21.       -39.        0.0
  OSSO-CUT-1        2687        22.       -39.        0.0        22.       -39.        0.0
  OSSO-CUT-1        2688        23.       -39.        0.0        23.       -39.        0.0
  OSSO-CUT-1        2689        22.       -38.        0.0        22.       -38.        0.0
  OSSO-CUT-1        2690        23.       -33.        0.0        23.       -33.        0.0
  OSSO-CUT-1        2691        23.       -32.        0.0        23.       -32.        0.0
  OSSO-CUT-1        2692        22.       -33.        0.0        22.       -33.        0.0
  OSSO-CUT-1        2693        23.       -31.        0.0        23.       -31.        0.0
  OSSO-CUT-1        2694        24.       -28.        0.0        24.       -28.        0.0
  OSSO-CUT-1        2695        23.       -28.        0.0        23.       -28.        0.0
  OSSO-CUT-1        2696        23.       -22.        0.0        23.       -22.        0.0
  OSSO-CUT-1        2697        24.       -22.        0.0        24.       -22.        0.0
  OSSO-CUT-1        2698        25.       -17.        0.0        25.       -17.        0.0
  OSSO-CUT-1        2699        23.       -16.        0.0        23.       -16.        0.0
  OSSO-CUT-1        2700        25.       -14.        0.0        25.       -14.        0.0
  OSSO-CUT-1        2701        26.       -11.        0.0        26.       -11.        0.0
  OSSO-CUT-1        2702        25.       -10.        0.0        25.       -10.        0.0
  OSSO-CUT-1        2703        27.        -6.        0.0        27.        -6.        0.0
  OSSO-CUT-1        2704        26.        -5.        0.0        26.        -5.        0.0
  OSSO-CUT-1        2705        27.        -2.        0.0        27.        -2.        0.0
  OSSO-CUT-1        2706        28.         1.        0.0        28.         1.        0.0
  OSSO-CUT-1        2707        29.         9.        0.0        29.         9.        0.0
  OSSO-CUT-1        2708        28.         9.        0.0        28.         9.        0.0
  OSSO-CUT-1        2709        30.        11.        0.0        30.        11.        0.0
  OSSO-CUT-1        2710        29.        12.        0.0        29.        12.        0.0
  OSSO-CUT-1        2711        28.        12.        0.0        28.        12.        0.0
  OSSO-CUT-1        2712        29.        15.        0.0        29.        15.        0.0
  OSSO-CUT-1        2713        29.        14.        0.0        29.        14.        0.0
  OSSO-CUT-1        2714        30.        14.        0.0        30.        14.        0.0
  OSSO-CUT-1        2715        32.        25.        0.0        32.        25.        0.0
  OSSO-CUT-1        2716        33.        26.        0.0        33.        26.        0.0
  OSSO-CUT-1        2717        32.        27.        0.0        32.        27.        0.0
  OSSO-CUT-1        2718        32.        30.        0.0        32.        30.        0.0
  OSSO-CUT-1        2719        33.        30.        0.0        33.        30.        0.0
  OSSO-CUT-1        2720        32.        31.        0.0        32.        31.        0.0
  OSSO-CUT-1        2721        33.        32.        0.0        33.        32.        0.0
  OSSO-CUT-1        2722        21.        41.        0.0        21.        41.        0.0
  OSSO-CUT-1        2723        18.        42.        0.0        18.        42.        0.0
  OSSO-CUT-1        2724        18.        41.        0.0        18.        41.        0.0
  OSSO-CUT-1        2725        19.        42.        0.0        19.        42.        0.0
  OSSO-CUT-1        2726        -3.        -6.        0.0        -3.        -6.        0.0
  OSSO-CUT-1        2727        -6.        17.        0.0        -6.        17.        0.0
  OSSO-CUT-1        2728        -8.        13.        0.0        -8.        13.        0.0
  OSSO-CUT-1        2729        -2.        -4.        0.0        -2.        -4.        0.0
  OSSO-CUT-1        2730        -2.        -4.        0.0        -2.        -4.        0.0
  OSSO-CUT-1        2731  -854.E-03        -4.        0.0  -851.E-03        -4.        0.0
  OSSO-CUT-1        2732        -1.        -3.        0.0        -1.        -3.        0.0
  OSSO-CUT-1        2733        17.        41.        0.0        17.        41.        0.0
  OSSO-CUT-1        2734        16.        38.        0.0        16.        38.        0.0
  OSSO-CUT-1        2735        17.        38.        0.0        17.        38.        0.0
  OSSO-CUT-1        2736        17.        39.        0.0        17.        39.        0.0
  OSSO-CUT-1        2737        16.        35.        0.0        16.        35.        0.0
  OSSO-CUT-1        2738        16.        36.        0.0        16.        36.        0.0
  OSSO-CUT-1        2739        -3.  -697.E-03        0.0        -3.  -697.E-03        0.0
  OSSO-CUT-1        2740        -9.        11.        0.0        -9.        11.        0.0
  OSSO-CUT-1        2741        -8.        10.        0.0        -8.        10.        0.0
  OSSO-CUT-1        2742        -7.         9.        0.0        -7.         9.        0.0
  OSSO-CUT-1        2743        -6.         9.        0.0        -6.         9.        0.0
  OSSO-CUT-1        2744        16.        34.        0.0        16.        34.        0.0
  OSSO-CUT-1        2745        15.        33.        0.0        15.        33.        0.0
  OSSO-CUT-1        2746        16.        33.        0.0        16.        33.        0.0
  OSSO-CUT-1        2747        16.        37.        0.0        16.        37.        0.0
  OSSO-CUT-1        2748        24.         3.        0.0        24.         3.        0.0
  OSSO-CUT-1        2749        24.         4.        0.0        24.         4.        0.0
  OSSO-CUT-1        2750        23.         3.        0.0        23.         3.        0.0
  OSSO-CUT-1        2751        21.   573.E-03        0.0        21.   572.E-03        0.0
  OSSO-CUT-1        2752       -12.         7.        0.0       -12.         7.        0.0
  OSSO-CUT-1        2753       -11.         7.        0.0       -11.         7.        0.0
  OSSO-CUT-1        2754       -12.         7.        0.0       -12.         7.        0.0
  OSSO-CUT-1        2755        12.       -40.        0.0        12.       -40.        0.0
  OSSO-CUT-1        2756        12.       -41.        0.0        12.       -41.        0.0
  OSSO-CUT-1        2757        13.       -40.        0.0        13.       -40.        0.0
  OSSO-CUT-1        2758        11.       -40.        0.0        11.       -40.        0.0
  OSSO-CUT-1        2759        19.       -42.        0.0        19.       -42.        0.0
  OSSO-CUT-1        2760        19.       -41.        0.0        19.       -41.        0.0
  OSSO-CUT-1        2761        13.       -39.        0.0        13.       -39.        0.0
  OSSO-CUT-1        2762  -640.E-03       -40.        0.0  -640.E-03       -40.        0.0
  OSSO-CUT-1        2763         4.       -42.        0.0         4.       -42.        0.0
  OSSO-CUT-1        2764         8.       -40.        0.0         8.       -40.        0.0
  OSSO-CUT-1        2765         7.       -41.        0.0         7.       -41.        0.0
  OSSO-CUT-1        2766        25.        39.        0.0        25.        39.        0.0
  OSSO-CUT-1        2767        22.        38.        0.0        22.        38.        0.0
  OSSO-CUT-1        2768        30.        32.        0.0        30.        32.        0.0
  OSSO-CUT-1        2769        -5.        -9.        0.0        -5.        -9.        0.0
  OSSO-CUT-1        2770        -4.        -9.        0.0        -4.        -9.        0.0
  OSSO-CUT-1        2771        -1.       -17.        0.0        -1.       -17.        0.0
  OSSO-CUT-1        2772        -2.       -10.        0.0        -2.       -10.        0.0
  OSSO-CUT-1        2773        -3.       -10.        0.0        -3.       -10.        0.0
  OSSO-CUT-1        2774        -2.        -9.        0.0        -2.        -9.        0.0
  OSSO-CUT-1        2775        -1.       -19.        0.0        -1.       -19.        0.0
  OSSO-CUT-1        2776        -2.       -20.        0.0        -2.       -20.        0.0
  OSSO-CUT-1        2777   159.E-03       -24.        0.0   160.E-03       -24.        0.0
  OSSO-CUT-1        2778   781.E-03       -24.        0.0   782.E-03       -24.        0.0
  OSSO-CUT-1        2779  -190.E-03       -23.        0.0  -189.E-03       -23.        0.0
  OSSO-CUT-1        2780  -812.E-03       -24.        0.0  -811.E-03       -24.        0.0
  OSSO-CUT-1        2781        -2.       -22.        0.0        -2.       -22.        0.0
  OSSO-CUT-1        2782        -1.       -21.        0.0        -1.       -21.        0.0
  OSSO-CUT-1        2783  -763.E-03       -25.        0.0  -762.E-03       -25.        0.0
  OSSO-CUT-1        2784   -62.E-03       -26.        0.0   -61.E-03       -26.        0.0
  OSSO-CUT-1        2785        -2.       -23.        0.0        -2.       -23.        0.0
  OSSO-CUT-1        2786        -1.       -24.        0.0        -1.       -24.        0.0
  OSSO-CUT-1        2787   781.E-03       -29.        0.0   781.E-03       -29.        0.0
  OSSO-CUT-1        2788   -47.E-03       -28.        0.0   -47.E-03       -28.        0.0
  OSSO-CUT-1        2789         1.       -31.        0.0         1.       -31.        0.0
  OSSO-CUT-1        2790   594.E-03       -32.        0.0   594.E-03       -32.        0.0
  OSSO-CUT-1        2791         1.       -33.        0.0         1.       -33.        0.0
  OSSO-CUT-1        2792        -2.       -35.        0.0        -2.       -35.        0.0
  OSSO-CUT-1        2793  -531.E-03       -37.        0.0  -531.E-03       -37.        0.0
  OSSO-CUT-1        2794        -2.       -36.        0.0        -2.       -36.        0.0
  OSSO-CUT-1        2795        31.        27.        0.0        31.        27.        0.0
  OSSO-CUT-1        2796        30.        27.        0.0        30.        27.        0.0
  OSSO-CUT-1        2797        33.        28.        0.0        33.        28.        0.0
  OSSO-CUT-1        2798        24.         1.        0.0        24.         1.        0.0
  OSSO-CUT-1        2799        25.         2.        0.0        25.         2.        0.0
  OSSO-CUT-1        2800        24.        -8.        0.0        24.        -8.        0.0
  OSSO-CUT-1        2801        24.       -10.        0.0        24.       -10.        0.0
  OSSO-CUT-1        2802        24.        -7.        0.0        24.        -7.        0.0
  OSSO-CUT-1        2803        25.        -4.        0.0        25.        -4.        0.0
  OSSO-CUT-1        2804        27.        -5.        0.0        27.        -5.        0.0
  OSSO-CUT-1        2805        26.        -5.        0.0        26.        -5.        0.0
  OSSO-CUT-1        2806        26.         5.        0.0        26.         5.        0.0
  OSSO-CUT-1        2807        26.         3.        0.0        26.         3.        0.0
  OSSO-CUT-1        2808        28.         8.        0.0        28.         8.        0.0
  OSSO-CUT-1        2809        27.         8.        0.0        27.         8.        0.0
  OSSO-CUT-1        2810        26.         8.        0.0        26.         8.        0.0
  OSSO-CUT-1        2811        25.         8.        0.0        25.         8.        0.0
  OSSO-CUT-1        2812        30.        13.        0.0        30.        13.        0.0
  OSSO-CUT-1        2813        28.        15.        0.0        28.        15.        0.0
  OSSO-CUT-1        2814        27.        12.        0.0        27.        12.        0.0
  OSSO-CUT-1        2815        22.       -22.        0.0        22.       -22.        0.0
  OSSO-CUT-1        2816        29.        21.        0.0        29.        21.        0.0
  OSSO-CUT-1        2817        28.        18.        0.0        28.        18.        0.0
  OSSO-CUT-1        2818        23.       -40.        0.0        23.       -40.        0.0
  OSSO-CUT-1        2819        23.       -37.        0.0        23.       -37.        0.0
  OSSO-CUT-1        2820        20.       -35.        0.0        20.       -35.        0.0
  OSSO-CUT-1        2821        21.       -25.        0.0        21.       -25.        0.0
  OSSO-CUT-1        2822        22.       -26.        0.0        22.       -26.        0.0
  OSSO-CUT-1        2823        23.       -27.        0.0        23.       -27.        0.0
  OSSO-CUT-1        2824        24.       -27.        0.0        24.       -27.        0.0
  OSSO-CUT-1        2825        21.       -27.        0.0        21.       -27.        0.0
  OSSO-CUT-1        2826        19.        -3.        0.0        19.        -3.        0.0
  OSSO-CUT-1        2827        18.        -3.        0.0        18.        -3.        0.0
  OSSO-CUT-1        2828        25.         5.        0.0        25.         5.        0.0
  OSSO-CUT-1        2829        22.         2.        0.0        22.         2.        0.0
  OSSO-CUT-1        2830        22.   688.E-03        0.0        22.   687.E-03        0.0
  OSSO-CUT-1        2831        23.         2.        0.0        23.         2.        0.0
  OSSO-CUT-1        2832        11.        27.        0.0        11.        27.        0.0
  OSSO-CUT-1        2833        12.        26.        0.0        12.        26.        0.0
  OSSO-CUT-1        2834        -3.        14.        0.0        -3.        14.        0.0
  OSSO-CUT-1        2835        -2.        15.        0.0        -2.        15.        0.0
  OSSO-CUT-1        2836        11.         2.        0.0        11.         2.        0.0
  OSSO-CUT-1        2837        -3.        14.        0.0        -3.        14.        0.0
  OSSO-CUT-1        2838        -4.        14.        0.0        -4.        14.        0.0
  OSSO-CUT-1        2839         2.         7.        0.0         2.         7.        0.0
  OSSO-CUT-1        2840         1.         7.        0.0         1.         7.        0.0
  OSSO-CUT-1        2841         1.         6.        0.0         1.         6.        0.0
  OSSO-CUT-1        2842         2.         6.        0.0         2.         6.        0.0
  OSSO-CUT-1        2843         3.        10.        0.0         3.        10.        0.0
  OSSO-CUT-1        2844        -3.        13.        0.0        -3.        13.        0.0
  OSSO-CUT-1        2845        -2.        10.        0.0        -2.        10.        0.0
  OSSO-CUT-1        2846        16.        26.        0.0        16.        26.        0.0
  OSSO-CUT-1        2847        17.        25.        0.0        17.        25.        0.0
  OSSO-CUT-1        2848        17.        26.        0.0        17.        26.        0.0
  OSSO-CUT-1        2849        15.        26.        0.0        15.        26.        0.0
  OSSO-CUT-1        2850        18.        23.        0.0        18.        23.        0.0
  OSSO-CUT-1        2851        24.        15.        0.0        24.        15.        0.0
  OSSO-CUT-1        2852        12.        25.        0.0        12.        25.        0.0
  OSSO-CUT-1        2853        15.        27.        0.0        15.        27.        0.0
  OSSO-CUT-1        2854        15.        28.        0.0        15.        28.        0.0
  OSSO-CUT-1        2855        14.        28.        0.0        14.        28.        0.0
  OSSO-CUT-1        2856        21.        20.        0.0        21.        20.        0.0
  OSSO-CUT-1        2857        20.        20.        0.0        20.        20.        0.0
  OSSO-CUT-1        2858        20.        21.        0.0        20.        21.        0.0
  OSSO-CUT-1        2859        13.        -5.        0.0        13.        -5.        0.0
  OSSO-CUT-1        2860        13.        -4.        0.0        13.        -4.        0.0
  OSSO-CUT-1        2861        14.        -2.        0.0        14.        -2.        0.0
  OSSO-CUT-1        2862        13.        -3.        0.0        13.        -3.        0.0
  OSSO-CUT-1        2863       -15.        11.        0.0       -15.        11.        0.0
  OSSO-CUT-1        2864       -12.         8.        0.0       -12.         8.        0.0
  OSSO-CUT-1        2865         9.        -4.        0.0         9.        -4.        0.0
  OSSO-CUT-1        2866         8.        -4.        0.0         8.        -4.        0.0
  OSSO-CUT-1        2867   907.E-03       -19.        0.0   909.E-03       -19.        0.0
  OSSO-CUT-1        2868         2.       -18.        0.0         2.       -18.        0.0
  OSSO-CUT-1        2869         1.       -18.        0.0         1.       -18.        0.0
  OSSO-CUT-1        2870        22.        -5.        0.0        22.        -5.        0.0
  OSSO-CUT-1        2871        22.        -6.        0.0        22.        -6.        0.0
  OSSO-CUT-1        2872        -5.        11.        0.0        -5.        11.        0.0
  OSSO-CUT-1        2873        -4.        12.        0.0        -4.        12.        0.0
  OSSO-CUT-1        2874        -5.        13.        0.0        -5.        13.        0.0
  OSSO-CUT-1        2875        18.        39.        0.0        18.        39.        0.0
  OSSO-CUT-1        2876        17.        37.        0.0        18.        37.        0.0
  OSSO-CUT-1        2877        19.        37.        0.0        19.        37.        0.0
  OSSO-CUT-1        2878        19.        38.        0.0        19.        38.        0.0
  OSSO-CUT-1        2879        29.        27.        0.0        29.        27.        0.0
  OSSO-CUT-1        2880        28.        26.        0.0        28.        26.        0.0
  OSSO-CUT-1        2881        31.        25.        0.0        31.        25.        0.0
  OSSO-CUT-1        2882         5.         1.        0.0         5.         1.        0.0
  OSSO-CUT-1        2883         5.   586.E-03        0.0         5.   585.E-03        0.0
  OSSO-CUT-1        2884         6.   355.E-03        0.0         6.   355.E-03        0.0
  OSSO-CUT-1        2885        -5.        10.        0.0        -5.        10.        0.0
  OSSO-CUT-1        2886        -5.        10.        0.0        -5.        10.        0.0
  OSSO-CUT-1        2887        -6.        10.        0.0        -6.        10.        0.0
  OSSO-CUT-1        2888        14.        29.        0.0        14.        29.        0.0
  OSSO-CUT-1        2889        13.        30.        0.0        13.        30.        0.0
  OSSO-CUT-1        2890        15.        29.        0.0        15.        29.        0.0
  OSSO-CUT-1        2891        15.        31.        0.0        15.        31.        0.0
  OSSO-CUT-1        2892        20.       -36.        0.0        20.       -36.        0.0
  OSSO-CUT-1        2893        23.        35.        0.0        23.        35.        0.0
  OSSO-CUT-1        2894        23.        36.        0.0        23.        36.        0.0
  OSSO-CUT-1        2895        22.        36.        0.0        22.        36.        0.0
  OSSO-CUT-1        2896        27.        36.        0.0        27.        36.        0.0
  OSSO-CUT-1        2897       -10.         8.        0.0       -10.         8.        0.0
  OSSO-CUT-1        2898        -9.         8.        0.0        -9.         8.        0.0
  OSSO-CUT-1        2899        -8.         9.        0.0        -8.         9.        0.0
  OSSO-CUT-1        2900        -2.        -7.        0.0        -2.        -7.        0.0
  OSSO-CUT-1        2901        -2.        -6.        0.0        -2.        -6.        0.0
  OSSO-CUT-1        2902        19.       -31.        0.0        19.       -31.        0.0
  OSSO-CUT-1        2903        19.       -30.        0.0        19.       -30.        0.0
  OSSO-CUT-1        2904        -6.   869.E-03        0.0        -6.   869.E-03        0.0
  OSSO-CUT-1        2905        -1.        -7.        0.0        -1.        -7.        0.0
  OSSO-CUT-1        2906        -2.        -8.        0.0        -2.        -8.        0.0
  OSSO-CUT-1        2907        -3.        -3.        0.0        -3.        -3.        0.0
  OSSO-CUT-1        2908        -2.        -2.        0.0        -2.        -2.        0.0
  OSSO-CUT-1        2909        -2.        -2.        0.0        -2.        -2.        0.0
  OSSO-CUT-1        2910        21.       -10.        0.0        21.       -10.        0.0
  OSSO-CUT-1        2911        22.        -9.        0.0        22.        -9.        0.0
  OSSO-CUT-1        2912        21.        -9.        0.0        21.        -9.        0.0
  OSSO-CUT-1        2913        24.       -11.        0.0        24.       -11.        0.0
  OSSO-CUT-1        2914   357.E-03       -17.        0.0   359.E-03       -17.        0.0
  OSSO-CUT-1        2915         1.       -15.        0.0         1.       -15.        0.0
  OSSO-CUT-1        2916         1.       -16.        0.0         1.       -16.        0.0
  OSSO-CUT-1        2917        21.        39.        0.0        21.        39.        0.0
  OSSO-CUT-1        2918        22.        38.        0.0        22.        38.        0.0
  OSSO-CUT-1        2919        21.        36.        0.0        21.        36.        0.0
  OSSO-CUT-1        2920        20.        -3.        0.0        20.        -3.        0.0
  OSSO-CUT-1        2921        -8.         9.        0.0        -8.         9.        0.0
  OSSO-CUT-1        2922         1.       -37.        0.0         1.       -37.        0.0
  OSSO-CUT-1        2923         2.       -37.        0.0         2.       -37.        0.0
  OSSO-CUT-1        2924         2.       -36.        0.0         2.       -36.        0.0
  OSSO-CUT-1        2925        23.        18.        0.0        23.        18.        0.0
  OSSO-CUT-1        2926        24.        18.        0.0        24.        18.        0.0
  OSSO-CUT-1        2927        24.        19.        0.0        24.        19.        0.0
  OSSO-CUT-1        2928        15.        32.        0.0        15.        32.        0.0
  OSSO-CUT-1        2929        14.        33.        0.0        14.        33.        0.0
  OSSO-CUT-1        2930        10.       -38.        0.0        10.       -38.        0.0
  OSSO-CUT-1        2931        11.       -38.        0.0        11.       -38.        0.0
  OSSO-CUT-1        2932        -1.        -9.        0.0        -1.        -9.        0.0
  OSSO-CUT-1        2933        24.         2.        0.0        24.         2.        0.0
  OSSO-CUT-1        2934        23.   778.E-03        0.0        23.   777.E-03        0.0
  OSSO-CUT-1        2935        29.        23.        0.0        29.        23.        0.0
  OSSO-CUT-1        2936        28.        21.        0.0        28.        21.        0.0
  OSSO-CUT-1        2937        27.        21.        0.0        27.        21.        0.0
  OSSO-CUT-1        2938        28.        20.        0.0        28.        20.        0.0
  OSSO-CUT-1        2939        -4.       -33.        0.0        -4.       -33.        0.0
  OSSO-CUT-1        2940        27.         9.        0.0        27.         9.        0.0
  OSSO-CUT-1        2941        28.        18.        0.0        28.        18.        0.0
  OSSO-CUT-1        2942        28.        17.        0.0        28.        17.        0.0
  OSSO-CUT-1        2943        28.        16.        0.0        28.        16.        0.0
  OSSO-CUT-1        2944        27.        15.        0.0        27.        15.        0.0
  OSSO-CUT-1        2945        21.       -25.        0.0        21.       -25.        0.0
  OSSO-CUT-1        2946        21.       -26.        0.0        21.       -26.        0.0
  OSSO-CUT-1        2947        21.       -23.        0.0        21.       -23.        0.0
  OSSO-CUT-1        2948        21.       -22.        0.0        21.       -22.        0.0
  OSSO-CUT-1        2949        20.       -21.        0.0        20.       -21.        0.0
  OSSO-CUT-1        2950        21.       -20.        0.0        21.       -20.        0.0
  OSSO-CUT-1        2951        23.        -2.        0.0        23.        -2.        0.0
  OSSO-CUT-1        2952        21.       -19.        0.0        21.       -19.        0.0
  OSSO-CUT-1        2953        22.        -2.        0.0        22.        -2.        0.0
  OSSO-CUT-1        2954        23.        -2.        0.0        23.        -2.        0.0
  OSSO-CUT-1        2955        23.        -1.        0.0        23.        -1.        0.0
  OSSO-CUT-1        2956        25.         2.        0.0        25.         2.        0.0
  OSSO-CUT-1        2957        24.         2.        0.0        24.         2.        0.0
  OSSO-CUT-1        2958         1.       -34.        0.0         1.       -34.        0.0
  OSSO-CUT-1        2959         1.       -34.        0.0         1.       -34.        0.0
  OSSO-CUT-1        2960   611.E-03       -35.        0.0   611.E-03       -35.        0.0
  OSSO-CUT-1        2961   -31.E-03         8.        0.0   -27.E-03         8.        0.0
  OSSO-CUT-1        2962        -1.         9.        0.0        -1.         9.        0.0
  OSSO-CUT-1        2963        -3.        12.        0.0        -3.        12.        0.0
  OSSO-CUT-1        2964        -4.        13.        0.0        -4.        13.        0.0
  OSSO-CUT-1        2965        21.        37.        0.0        21.        37.        0.0
  OSSO-CUT-1        2966        20.        37.        0.0        20.        37.        0.0
  OSSO-CUT-1        2967         1.       -13.        0.0         1.       -13.        0.0
  OSSO-CUT-1        2968         2.       -14.        0.0         2.       -14.        0.0
  OSSO-CUT-1        2969         2.       -12.        0.0         2.       -12.        0.0
  OSSO-CUT-1        2970        23.  -141.E-03        0.0        23.  -142.E-03        0.0
  OSSO-CUT-1        2971        20.       -27.        0.0        20.       -27.        0.0
  OSSO-CUT-1        2972        21.        34.        0.0        21.        34.        0.0
  OSSO-CUT-1        2973        20.        35.        0.0        20.        35.        0.0
  OSSO-CUT-1        2974        25.        34.        0.0        25.        34.        0.0
  OSSO-CUT-1        2975        25.        33.        0.0        25.        33.        0.0
  OSSO-CUT-1        2976        26.        33.        0.0        26.        33.        0.0
  OSSO-CUT-1        2977        26.        34.        0.0        26.        34.        0.0
  OSSO-CUT-1        2978        27.        35.        0.0        27.        35.        0.0
  OSSO-CUT-1        2979        29.        35.        0.0        29.        35.        0.0
  OSSO-CUT-1        2980        15.       -38.        0.0        15.       -38.        0.0
  OSSO-CUT-1        2981        14.       -38.        0.0        14.       -38.        0.0
  OSSO-CUT-1        2982        19.       -21.        0.0        19.       -21.        0.0
  OSSO-CUT-1        2983        28.        34.        0.0        28.        34.        0.0
  OSSO-CUT-1        2984        29.        33.        0.0        29.        33.        0.0
  OSSO-CUT-1        2985        19.        38.        0.0        19.        38.        0.0
  OSSO-CUT-1        2986        20.        38.        0.0        20.        38.        0.0
  OSSO-CUT-1        2987        18.        -6.        0.0        18.        -6.        0.0
  OSSO-CUT-1        2988   845.E-03       -12.        0.0   847.E-03       -12.        0.0
  OSSO-CUT-1        2989   636.E-03       -11.        0.0   638.E-03       -11.        0.0
  OSSO-CUT-1        2990   935.E-03       -11.        0.0   938.E-03       -11.        0.0
  OSSO-CUT-1        2991   230.E-03       -10.        0.0   232.E-03       -10.        0.0
  OSSO-CUT-1        2992        19.       -27.        0.0        19.       -27.        0.0
  OSSO-CUT-1        2993        18.       -28.        0.0        18.       -28.        0.0
  OSSO-CUT-1        2994        19.       -29.        0.0        19.       -29.        0.0
  OSSO-CUT-1        2995        18.       -29.        0.0        18.       -29.        0.0
  OSSO-CUT-1        2996        28.        30.        0.0        28.        30.        0.0
  OSSO-CUT-1        2997        28.        29.        0.0        28.        29.        0.0
  OSSO-CUT-1        2998        18.       -32.        0.0        18.       -32.        0.0
  OSSO-CUT-1        2999        19.       -33.        0.0        19.       -33.        0.0
  OSSO-CUT-1        3000        19.       -35.        0.0        19.       -35.        0.0
  OSSO-CUT-1        3001        -2.  -250.E-03        0.0        -2.  -251.E-03        0.0
  OSSO-CUT-1        3002        12.        -5.        0.0        12.        -5.        0.0
  OSSO-CUT-1        3003        12.        -6.        0.0        12.        -6.        0.0
  OSSO-CUT-1        3004        13.        -6.        0.0        13.        -6.        0.0
  OSSO-CUT-1        3005        -6.         2.        0.0        -6.         2.        0.0
  OSSO-CUT-1        3006        -5.         3.        0.0        -5.         3.        0.0
  OSSO-CUT-1        3007        -6.         3.        0.0        -6.         3.        0.0
  OSSO-CUT-1        3008        -7.         2.        0.0        -7.         2.        0.0
  OSSO-CUT-1        3009        21.        -3.        0.0        21.        -3.        0.0
  OSSO-CUT-1        3010        22.        -3.        0.0        22.        -3.        0.0
  OSSO-CUT-1        3011        22.        -2.        0.0        22.        -2.        0.0
  OSSO-CUT-1        3012        22.        -4.        0.0        22.        -4.        0.0
  OSSO-CUT-1        3013        22.        -4.        0.0        22.        -4.        0.0
  OSSO-CUT-1        3014        21.        -8.        0.0        21.        -8.        0.0
  OSSO-CUT-1        3015         7.     1.E-03        0.0         7.   737.E-06        0.0
  OSSO-CUT-1        3016         8.  -241.E-03        0.0         8.  -242.E-03        0.0
  OSSO-CUT-1        3017         7.        -1.        0.0         7.        -1.        0.0
  OSSO-CUT-1        3018        16.        32.        0.0        16.        32.        0.0
  OSSO-CUT-1        3019        10.        -5.        0.0        10.        -5.        0.0
  OSSO-CUT-1        3020        28.        25.        0.0        28.        25.        0.0
  OSSO-CUT-1        3021        28.        27.        0.0        28.        27.        0.0
  OSSO-CUT-1        3022        18.        24.        0.0        18.        24.        0.0
  OSSO-CUT-1        3023        18.        25.        0.0        18.        25.        0.0
  OSSO-CUT-1        3024         1.       -35.        0.0         1.       -35.        0.0
  OSSO-CUT-1        3025   825.E-03       -36.        0.0   825.E-03       -36.        0.0
  OSSO-CUT-1        3026   615.E-03       -36.        0.0   615.E-03       -36.        0.0
  OSSO-CUT-1        3027         5.  -520.E-03        0.0         5.  -520.E-03        0.0
  OSSO-CUT-1        3028         6.  -874.E-03        0.0         6.  -874.E-03        0.0
  OSSO-CUT-1        3029        27.        28.        0.0        27.        28.        0.0
  OSSO-CUT-1        3030        28.        28.        0.0        28.        28.        0.0
  OSSO-CUT-1        3031        29.        27.        0.0        29.        27.        0.0
  OSSO-CUT-1        3032        27.        27.        0.0        27.        27.        0.0
  OSSO-CUT-1        3033       -11.         8.        0.0       -11.         8.        0.0
  OSSO-CUT-1        3034        21.        38.        0.0        21.        38.        0.0
  OSSO-CUT-1        3035        20.        37.        0.0        20.        37.        0.0
  OSSO-CUT-1        3036        28.        24.        0.0        28.        24.        0.0
  OSSO-CUT-1        3037        32.        25.        0.0        32.        25.        0.0
  OSSO-CUT-1        3038        23.       -17.        0.0        23.       -17.        0.0
  OSSO-CUT-1        3039        22.       -18.        0.0        22.       -18.        0.0
  OSSO-CUT-1        3040        19.        -5.        0.0        19.        -5.        0.0
  OSSO-CUT-1        3041        20.        -5.        0.0        20.        -5.        0.0
  OSSO-CUT-1        3042        20.        -4.        0.0        20.        -4.        0.0
  OSSO-CUT-1        3043   410.E-03       -33.        0.0   410.E-03       -33.        0.0
  OSSO-CUT-1        3044  -171.E-03       -32.        0.0  -170.E-03       -32.        0.0
  OSSO-CUT-1        3045         3.         3.        0.0         3.         3.        0.0
  OSSO-CUT-1        3046         5.         2.        0.0         5.         2.        0.0
  OSSO-CUT-1        3047         4.         2.        0.0         4.         2.        0.0
  OSSO-CUT-1        3048         4.         2.        0.0         4.         2.        0.0
  OSSO-CUT-1        3049        -2.        11.        0.0        -2.        11.        0.0
  OSSO-CUT-1        3050        -2.        10.        0.0        -2.        10.        0.0
  OSSO-CUT-1        3051  -570.E-03       -10.        0.0  -568.E-03       -10.        0.0
  OSSO-CUT-1        3052   394.E-03        -7.        0.0   396.E-03        -7.        0.0
  OSSO-CUT-1        3053        17.        32.        0.0        17.        32.        0.0
  OSSO-CUT-1        3054         7.       -38.        0.0         7.       -38.        0.0
  OSSO-CUT-1        3055         8.       -38.        0.0         8.       -38.        0.0
  OSSO-CUT-1        3056         7.       -37.        0.0         7.       -37.        0.0
  OSSO-CUT-1        3057         6.       -38.        0.0         6.       -38.        0.0
  OSSO-CUT-1        3058         6.       -38.        0.0         6.       -38.        0.0
  OSSO-CUT-1        3059   724.E-03       -10.        0.0   726.E-03       -10.        0.0
  OSSO-CUT-1        3060        23.        17.        0.0        23.        17.        0.0
  OSSO-CUT-1        3061        25.        19.        0.0        25.        19.        0.0
  OSSO-CUT-1        3062        25.        18.        0.0        25.        18.        0.0
  OSSO-CUT-1        3063        22.  -966.E-03        0.0        22.  -968.E-03        0.0
  OSSO-CUT-1        3064        25.        17.        0.0        25.        17.        0.0
  OSSO-CUT-1        3065        22.        33.        0.0        22.        33.        0.0
  OSSO-CUT-1        3066        22.        33.        0.0        22.        33.        0.0
  OSSO-CUT-1        3067        21.        33.        0.0        21.        33.        0.0
  OSSO-CUT-1        3068        21.        33.        0.0        21.        33.        0.0
  OSSO-CUT-1        3069         1.        -7.        0.0         1.        -7.        0.0
  OSSO-CUT-1        3070         2.        -6.        0.0         2.        -6.        0.0
  OSSO-CUT-1        3071         1.        -6.        0.0         1.        -6.        0.0
  OSSO-CUT-1        3072   501.E-03        -4.        0.0   504.E-03        -4.        0.0
  OSSO-CUT-1        3073        -1.        -2.        0.0  -997.E-03        -2.        0.0
  OSSO-CUT-1        3074        24.        20.        0.0        24.        20.        0.0
  OSSO-CUT-1        3075        24.        21.        0.0        24.        21.        0.0
  OSSO-CUT-1        3076        -2.         8.        0.0        -2.         8.        0.0
  OSSO-CUT-1        3077        27.        24.        0.0        27.        24.        0.0
  OSSO-CUT-1        3078        28.        24.        0.0        28.        24.        0.0
  OSSO-CUT-1        3079        27.        25.        0.0        27.        25.        0.0
  OSSO-CUT-1        3080        -8.         7.        0.0        -8.         7.        0.0
  OSSO-CUT-1        3081        -8.         8.        0.0        -8.         8.        0.0
  OSSO-CUT-1        3082        -6.         8.        0.0        -6.         8.        0.0
  OSSO-CUT-1        3083        -5.         9.        0.0        -5.         9.        0.0
  OSSO-CUT-1        3084        -1.        -1.        0.0        -1.        -1.        0.0
  OSSO-CUT-1        3085        24.        34.        0.0        24.        34.        0.0
  OSSO-CUT-1        3086        24.        34.        0.0        24.        34.        0.0
  OSSO-CUT-1        3087        23.        34.        0.0        23.        34.        0.0
  OSSO-CUT-1        3088         9.       -37.        0.0         9.       -37.        0.0
  OSSO-CUT-1        3089         8.       -37.        0.0         8.       -37.        0.0
  OSSO-CUT-1        3090  -412.E-03       -20.        0.0  -411.E-03       -20.        0.0
  OSSO-CUT-1        3091   251.E-03       -20.        0.0   252.E-03       -20.        0.0
  OSSO-CUT-1        3092         4.       -38.        0.0         4.       -38.        0.0
  OSSO-CUT-1        3093         1.       -36.        0.0         1.       -36.        0.0
  OSSO-CUT-1        3094        18.       -34.        0.0        18.       -34.        0.0
  OSSO-CUT-1        3095        18.       -33.        0.0        18.       -33.        0.0
  OSSO-CUT-1        3096        19.       -19.        0.0        19.       -19.        0.0
  OSSO-CUT-1        3097        18.       -20.        0.0        18.       -20.        0.0
  OSSO-CUT-1        3098        19.       -20.        0.0        19.       -20.        0.0
  OSSO-CUT-1        3099        18.       -21.        0.0        18.       -21.        0.0
  OSSO-CUT-1        3100         2.       -34.        0.0         2.       -34.        0.0
  OSSO-CUT-1        3101         2.       -35.        0.0         2.       -35.        0.0
  OSSO-CUT-1        3102         3.       -35.        0.0         3.       -35.        0.0
  OSSO-CUT-1        3103         4.       -38.        0.0         4.       -38.        0.0
  OSSO-CUT-1        3104         4.         3.        0.0         4.         3.        0.0
  OSSO-CUT-1        3105         5.         3.        0.0         5.         3.        0.0
  OSSO-CUT-1        3106        21.        -4.        0.0        21.        -4.        0.0
  OSSO-CUT-1        3107        18.        32.        0.0        18.        32.        0.0
  OSSO-CUT-1        3108        -4.         3.        0.0        -4.         3.        0.0
  OSSO-CUT-1        3109        -4.         3.        0.0        -4.         3.        0.0
  OSSO-CUT-1        3110        -4.         3.        0.0        -4.         3.        0.0
  OSSO-CUT-1        3111        -4.         5.        0.0        -4.         5.        0.0
  OSSO-CUT-1        3112        -3.         5.        0.0        -3.         5.        0.0
  OSSO-CUT-1        3113        18.       -18.        0.0        18.       -18.        0.0
  OSSO-CUT-1        3114         1.        -5.        0.0         1.        -5.        0.0
  OSSO-CUT-1        3115         2.        -4.        0.0         2.        -4.        0.0
  OSSO-CUT-1        3116         1.        -4.        0.0         1.        -4.        0.0
  OSSO-CUT-1        3117         4.       -14.        0.0         4.       -14.        0.0
  OSSO-CUT-1        3118         5.       -13.        0.0         5.       -13.        0.0
  OSSO-CUT-1        3119         2.       -12.        0.0         2.       -12.        0.0
  OSSO-CUT-1        3120        27.        32.        0.0        27.        32.        0.0
  OSSO-CUT-1        3121        27.        33.        0.0        27.        33.        0.0
  OSSO-CUT-1        3122        26.        32.        0.0        26.        32.        0.0
  OSSO-CUT-1        3123        17.       -19.        0.0        17.       -19.        0.0
  OSSO-CUT-1        3124        17.       -18.        0.0        17.       -18.        0.0
  OSSO-CUT-1        3125        17.       -19.        0.0        17.       -19.        0.0
  OSSO-CUT-1        3126         2.        -5.        0.0         2.        -5.        0.0
  OSSO-CUT-1        3127         1.        -3.        0.0         1.        -3.        0.0
  OSSO-CUT-1        3128         3.        -6.        0.0         3.        -6.        0.0
  OSSO-CUT-1        3129        -3.         2.        0.0        -3.         2.        0.0
  OSSO-CUT-1        3130        13.       -37.        0.0        13.       -37.        0.0
  OSSO-CUT-1        3131        13.       -36.        0.0        13.       -36.        0.0
  OSSO-CUT-1        3132        12.       -35.        0.0        12.       -35.        0.0
  OSSO-CUT-1        3133        12.       -36.        0.0        12.       -36.        0.0
  OSSO-CUT-1        3134        -7.         6.        0.0        -7.         6.        0.0
  OSSO-CUT-1        3135        -7.         6.        0.0        -7.         6.        0.0
  OSSO-CUT-1        3136        -6.         6.        0.0        -6.         6.        0.0
  OSSO-CUT-1        3137        -6.         7.        0.0        -6.         7.        0.0
  OSSO-CUT-1        3138        18.       -24.        0.0        18.       -24.        0.0
  OSSO-CUT-1        3139        18.       -26.        0.0        18.       -26.        0.0
  OSSO-CUT-1        3140        18.       -29.        0.0        18.       -29.        0.0
  OSSO-CUT-1        3141        18.       -27.        0.0        18.       -27.        0.0
  OSSO-CUT-1        3142        17.       -28.        0.0        17.       -28.        0.0
  OSSO-CUT-1        3143         2.       -10.        0.0         2.       -10.        0.0
  OSSO-CUT-1        3144         2.        -9.        0.0         2.        -9.        0.0
  OSSO-CUT-1        3145        21.        -5.        0.0        21.        -5.        0.0
  OSSO-CUT-1        3146        21.        -5.        0.0        21.        -5.        0.0
  OSSO-CUT-1        3147        25.        20.        0.0        25.        20.        0.0
  OSSO-CUT-1        3148        12.        -7.        0.0        12.        -7.        0.0
  OSSO-CUT-1        3149        13.        -8.        0.0        13.        -8.        0.0
  OSSO-CUT-1        3150        21.        -6.        0.0        21.        -6.        0.0
  OSSO-CUT-1        3151        21.        -6.        0.0        21.        -6.        0.0
  OSSO-CUT-1        3152        21.        -7.        0.0        21.        -7.        0.0
  OSSO-CUT-1        3153         3.         2.        0.0         3.         2.        0.0
  OSSO-CUT-1        3154         3.         2.        0.0         3.         2.        0.0
  OSSO-CUT-1        3155         2.         2.        0.0         2.         2.        0.0
  OSSO-CUT-1        3156        19.       -16.        0.0        19.       -16.        0.0
  OSSO-CUT-1        3157        26.        23.        0.0        26.        23.        0.0
  OSSO-CUT-1        3158        26.        25.        0.0        26.        25.        0.0
  OSSO-CUT-1        3159        25.        24.        0.0        25.        24.        0.0
  OSSO-CUT-1        3160        25.        23.        0.0        25.        23.        0.0
  OSSO-CUT-1        3161        26.        22.        0.0        26.        22.        0.0
  OSSO-CUT-1        3162        25.        30.        0.0        25.        30.        0.0
  OSSO-CUT-1        3163        25.        29.        0.0        25.        29.        0.0
  OSSO-CUT-1        3164        26.        28.        0.0        26.        28.        0.0
  OSSO-CUT-1        3165        15.       -37.        0.0        15.       -37.        0.0
  OSSO-CUT-1        3166        15.       -36.        0.0        15.       -36.        0.0
  OSSO-CUT-1        3167        14.       -37.        0.0        14.       -37.        0.0
  OSSO-CUT-1        3168        -4.         8.        0.0        -4.         8.        0.0
  OSSO-CUT-1        3169        -3.         7.        0.0        -3.         7.        0.0
  OSSO-CUT-1        3170        16.       -27.        0.0        16.       -27.        0.0
  OSSO-CUT-1        3171        17.       -26.        0.0        17.       -26.        0.0
  OSSO-CUT-1        3172        16.       -26.        0.0        16.       -26.        0.0
  OSSO-CUT-1        3173         9.       -36.        0.0         9.       -36.        0.0
  OSSO-CUT-1        3174         8.       -36.        0.0         8.       -36.        0.0
  OSSO-CUT-1        3175         6.       -36.        0.0         6.       -36.        0.0
  OSSO-CUT-1        3176         8.       -35.        0.0         8.       -35.        0.0
  OSSO-CUT-1        3177         8.       -34.        0.0         8.       -34.        0.0
  OSSO-CUT-1        3178         8.       -34.        0.0         8.       -34.        0.0
  OSSO-CUT-1        3179        13.       -35.        0.0        13.       -35.        0.0
  OSSO-CUT-1        3180        27.        34.        0.0        27.        34.        0.0
  OSSO-CUT-1        3181        13.       -37.        0.0        13.       -37.        0.0
  OSSO-CUT-1        3182        13.       -37.        0.0        13.       -37.        0.0
  OSSO-CUT-1        3183        12.       -37.        0.0        12.       -37.        0.0
  OSSO-CUT-1        3184        11.       -37.        0.0        11.       -37.        0.0
  OSSO-CUT-1        3185        10.       -36.        0.0        10.       -36.        0.0
  OSSO-CUT-1        3186        16.       -36.        0.0        16.       -36.        0.0
  OSSO-CUT-1        3187        -5.         7.        0.0        -5.         7.        0.0
  OSSO-CUT-1        3188        17.       -21.        0.0        17.       -21.        0.0
  OSSO-CUT-1        3189        16.       -22.        0.0        16.       -22.        0.0
  OSSO-CUT-1        3190  -742.E-03       -32.        0.0  -741.E-03       -32.        0.0
  OSSO-CUT-1        3191   583.E-03         5.        0.0   586.E-03         5.        0.0
  OSSO-CUT-1        3192  -193.E-03         5.        0.0  -190.E-03         5.        0.0
  OSSO-CUT-1        3193  -149.E-03         4.        0.0  -146.E-03         4.        0.0
  OSSO-CUT-1        3194   627.E-03         4.        0.0   630.E-03         4.        0.0
  OSSO-CUT-1        3195        20.       -14.        0.0        20.       -14.        0.0
  OSSO-CUT-1        3196        21.       -14.        0.0        21.       -14.        0.0
  OSSO-CUT-1        3197        19.       -13.        0.0        19.       -13.        0.0
  OSSO-CUT-1        3198         4.       -15.        0.0         4.       -15.        0.0
  OSSO-CUT-1        3199         5.       -16.        0.0         5.       -16.        0.0
  OSSO-CUT-1        3200         5.       -15.        0.0         5.       -15.        0.0
  OSSO-CUT-1        3201         5.       -14.        0.0         5.       -15.        0.0
  OSSO-CUT-1        3202        12.        -4.        0.0        12.        -4.        0.0
  OSSO-CUT-1        3203        11.        -5.        0.0        11.        -5.        0.0
  OSSO-CUT-1        3204         3.   959.E-03        0.0         3.   958.E-03        0.0
  OSSO-CUT-1        3205         4.   812.E-03        0.0         4.   812.E-03        0.0
  OSSO-CUT-1        3206        -2.         3.        0.0        -2.         3.        0.0
  OSSO-CUT-1        3207        16.       -35.        0.0        16.       -35.        0.0
  OSSO-CUT-1        3208        16.       -33.        0.0        16.       -33.        0.0
  OSSO-CUT-1        3209        15.       -36.        0.0        15.       -36.        0.0
  OSSO-CUT-1        3210        24.        24.        0.0        24.        24.        0.0
  OSSO-CUT-1        3211        24.        22.        0.0        24.        22.        0.0
  OSSO-CUT-1        3212         3.       -33.        0.0         3.       -33.        0.0
  OSSO-CUT-1        3213         4.       -32.        0.0         4.       -32.        0.0
  OSSO-CUT-1        3214        21.        -8.        0.0        21.        -8.        0.0
  OSSO-CUT-1        3215        26.        20.        0.0        26.        20.        0.0
  OSSO-CUT-1        3216        25.        20.        0.0        25.        20.        0.0
  OSSO-CUT-1        3217        14.        -8.        0.0        14.        -8.        0.0
  OSSO-CUT-1        3218        15.        -8.        0.0        15.        -8.        0.0
  OSSO-CUT-1        3219        21.        21.        0.0        21.        21.        0.0
  OSSO-CUT-1        3220        21.        22.        0.0        21.        22.        0.0
  OSSO-CUT-1        3221        17.       -20.        0.0        17.       -20.        0.0
  OSSO-CUT-1        3222        25.        30.        0.0        25.        30.        0.0
  OSSO-CUT-1        3223        26.        27.        0.0        26.        27.        0.0
  OSSO-CUT-1        3224        19.        -7.        0.0        19.        -7.        0.0
  OSSO-CUT-1        3225        18.        -8.        0.0        18.        -8.        0.0
  OSSO-CUT-1        3226        -3.         6.        0.0        -3.         6.        0.0
  OSSO-CUT-1        3227        22.        32.        0.0        22.        32.        0.0
  OSSO-CUT-1        3228        23.        32.        0.0        23.        32.        0.0
  OSSO-CUT-1        3229        23.        33.        0.0        23.        33.        0.0
  OSSO-CUT-1        3230        21.        32.        0.0        21.        32.        0.0
  OSSO-CUT-1        3231        20.        32.        0.0        20.        32.        0.0
  OSSO-CUT-1        3232        21.        23.        0.0        21.        23.        0.0
  OSSO-CUT-1        3233        21.        24.        0.0        21.        24.        0.0
  OSSO-CUT-1        3234         4.        -5.        0.0         4.        -5.        0.0
  OSSO-CUT-1        3235         3.        -5.        0.0         3.        -5.        0.0
  OSSO-CUT-1        3236         3.        -5.        0.0         3.        -5.        0.0
  OSSO-CUT-1        3237        10.        -6.        0.0        10.        -6.        0.0
  OSSO-CUT-1        3238        11.        -6.        0.0        11.        -6.        0.0
  OSSO-CUT-1        3239        12.        -7.        0.0        12.        -7.        0.0
  OSSO-CUT-1        3240        -5.         8.        0.0        -5.         8.        0.0
  OSSO-CUT-1        3241         3.       -33.        0.0         3.       -33.        0.0
  OSSO-CUT-1        3242         4.       -33.        0.0         4.       -33.        0.0
  OSSO-CUT-1        3243         1.       -29.        0.0         1.       -29.        0.0
  OSSO-CUT-1        3244         2.       -28.        0.0         2.       -28.        0.0
  OSSO-CUT-1        3245   961.E-03       -28.        0.0   962.E-03       -28.        0.0
  OSSO-CUT-1        3246         7.       -35.        0.0         7.       -35.        0.0
  OSSO-CUT-1        3247        19.        32.        0.0        19.        32.        0.0
  OSSO-CUT-1        3248        10.       -33.        0.0        10.       -33.        0.0
  OSSO-CUT-1        3249        10.       -34.        0.0        10.       -34.        0.0
  OSSO-CUT-1        3250         1.       -11.        0.0         2.       -11.        0.0
  OSSO-CUT-1        3251        -7.         4.        0.0        -7.         4.        0.0
  OSSO-CUT-1        3252        -7.         3.        0.0        -7.         3.        0.0
  OSSO-CUT-1        3253        17.       -32.        0.0        17.       -32.        0.0
  OSSO-CUT-1        3254        16.       -33.        0.0        16.       -33.        0.0
  OSSO-CUT-1        3255        18.       -16.        0.0        18.       -16.        0.0
  OSSO-CUT-1        3256        19.       -15.        0.0        19.       -15.        0.0
  OSSO-CUT-1        3257        18.       -15.        0.0        18.       -15.        0.0
  OSSO-CUT-1        3258        17.       -16.        0.0        17.       -16.        0.0
  OSSO-CUT-1        3259        23.       -15.        0.0        23.       -15.        0.0
  OSSO-CUT-1        3260         2.       -33.        0.0         2.       -33.        0.0
  OSSO-CUT-1        3261         5.       -32.        0.0         5.       -32.        0.0
  OSSO-CUT-1        3262         6.       -32.        0.0         6.       -32.        0.0
  OSSO-CUT-1        3263        25.        26.        0.0        25.        26.        0.0
  OSSO-CUT-1        3264        25.        27.        0.0        25.        27.        0.0
  OSSO-CUT-1        3265        24.        27.        0.0        24.        27.        0.0
  OSSO-CUT-1        3266        24.        26.        0.0        24.        26.        0.0
  OSSO-CUT-1        3267        25.        21.        0.0        25.        21.        0.0
  OSSO-CUT-1        3268        24.        21.        0.0        24.        21.        0.0
  OSSO-CUT-1        3269         5.  -177.E-03        0.0         5.  -177.E-03        0.0
  OSSO-CUT-1        3270         5.        -1.        0.0         5.        -1.        0.0
  OSSO-CUT-1        3271        15.       -28.        0.0        15.       -28.        0.0
  OSSO-CUT-1        3272        20.        -9.        0.0        20.        -9.        0.0
  OSSO-CUT-1        3273        19.        -9.        0.0        19.        -9.        0.0
  OSSO-CUT-1        3274        20.       -10.        0.0        20.       -10.        0.0
  OSSO-CUT-1        3275         5.       -35.        0.0         5.       -35.        0.0
  OSSO-CUT-1        3276         5.       -34.        0.0         5.       -34.        0.0
  OSSO-CUT-1        3277        17.       -32.        0.0        17.       -32.        0.0
  OSSO-CUT-1        3278        25.        32.        0.0        25.        32.        0.0
  OSSO-CUT-1        3279        24.        29.        0.0        24.        29.        0.0
  OSSO-CUT-1        3280         3.        -3.        0.0         3.        -3.        0.0
  OSSO-CUT-1        3281         4.        -3.        0.0         4.        -3.        0.0
  OSSO-CUT-1        3282         4.        -2.        0.0         4.        -2.        0.0
  OSSO-CUT-1        3283         2.        -2.        0.0         2.        -2.        0.0
  OSSO-CUT-1        3284         2.  -625.E-03        0.0         2.  -625.E-03        0.0
  OSSO-CUT-1        3285        16.       -22.        0.0        16.       -22.        0.0
  OSSO-CUT-1        3286        16.       -23.        0.0        16.       -23.        0.0
  OSSO-CUT-1        3287        23.        30.        0.0        23.        30.        0.0
  OSSO-CUT-1        3288        24.        30.        0.0        24.        30.        0.0
  OSSO-CUT-1        3289        23.        31.        0.0        23.        31.        0.0
  OSSO-CUT-1        3290        22.        31.        0.0        22.        31.        0.0
  OSSO-CUT-1        3291        24.        33.        0.0        24.        33.        0.0
  OSSO-CUT-1        3292        23.        33.        0.0        23.        33.        0.0
  OSSO-CUT-1        3293         5.        -4.        0.0         5.        -4.        0.0
  OSSO-CUT-1        3294        11.       -32.        0.0        11.       -32.        0.0
  OSSO-CUT-1        3295        16.        -9.        0.0        16.        -9.        0.0
  OSSO-CUT-1        3296        14.       -28.        0.0        14.       -28.        0.0
  OSSO-CUT-1        3297        15.       -27.        0.0        15.       -27.        0.0
  OSSO-CUT-1        3298        14.       -36.        0.0        14.       -36.        0.0
  OSSO-CUT-1        3299         6.       -15.        0.0         6.       -15.        0.0
  OSSO-CUT-1        3300         4.       -31.        0.0         4.       -31.        0.0
  OSSO-CUT-1        3301         2.        -2.        0.0         2.        -2.        0.0
  OSSO-CUT-1        3302        -1.         3.        0.0        -1.         3.        0.0
  OSSO-CUT-1        3303        -2.         4.        0.0        -2.         4.        0.0
  OSSO-CUT-1        3304  -828.E-03         4.        0.0  -825.E-03         4.        0.0
  OSSO-CUT-1        3305        23.        27.        0.0        23.        27.        0.0
  OSSO-CUT-1        3306        23.        26.        0.0        23.        26.        0.0
  OSSO-CUT-1        3307        25.        25.        0.0        25.        25.        0.0
  OSSO-CUT-1        3308        24.        25.        0.0        24.        25.        0.0
  OSSO-CUT-1        3309        -4.         4.        0.0        -4.         4.        0.0
  OSSO-CUT-1        3310        21.        23.        0.0        21.        23.        0.0
  OSSO-CUT-1        3311        25.        22.        0.0        25.        22.        0.0
  OSSO-CUT-1        3312        22.       -15.        0.0        22.       -15.        0.0
  OSSO-CUT-1        3313        21.        31.        0.0        21.        31.        0.0
  OSSO-CUT-1        3314        15.       -21.        0.0        15.       -21.        0.0
  OSSO-CUT-1        3315        15.       -31.        0.0        15.       -31.        0.0
  OSSO-CUT-1        3316        16.       -32.        0.0        16.       -32.        0.0
  OSSO-CUT-1        3317        17.       -16.        0.0        17.       -16.        0.0
  OSSO-CUT-1        3318        14.       -18.        0.0        14.       -18.        0.0
  OSSO-CUT-1        3319         3.       -29.        0.0         3.       -29.        0.0
  OSSO-CUT-1        3320         3.       -28.        0.0         3.       -28.        0.0
  OSSO-CUT-1        3321         2.       -28.        0.0         2.       -28.        0.0
  OSSO-CUT-1        3322         2.       -29.        0.0         2.       -29.        0.0
  OSSO-CUT-1        3323         3.       -19.        0.0         3.       -19.        0.0
  OSSO-CUT-1        3324        14.       -21.        0.0        14.       -21.        0.0
  OSSO-CUT-1        3325        13.       -21.        0.0        13.       -21.        0.0
  OSSO-CUT-1        3326         9.        -7.        0.0         9.        -7.        0.0
  OSSO-CUT-1        3327        22.       -13.        0.0        22.       -13.        0.0
  OSSO-CUT-1        3328         5.        -2.        0.0         5.        -2.        0.0
  OSSO-CUT-1        3329         4.       -18.        0.0         4.       -18.        0.0
  OSSO-CUT-1        3330         5.       -18.        0.0         5.       -18.        0.0
  OSSO-CUT-1        3331         5.       -17.        0.0         5.       -17.        0.0
  OSSO-CUT-1        3332        13.       -31.        0.0        13.       -31.        0.0
  OSSO-CUT-1        3333        12.       -31.        0.0        12.       -31.        0.0
  OSSO-CUT-1        3334        13.       -32.        0.0        13.       -32.        0.0
  OSSO-CUT-1        3335        24.        32.        0.0        24.        32.        0.0
  OSSO-CUT-1        3336        22.        30.        0.0        22.        30.        0.0
  OSSO-CUT-1        3337        22.        31.        0.0        22.        31.        0.0
  OSSO-CUT-1        3338        -3.         5.        0.0        -3.         5.        0.0
  OSSO-CUT-1        3339         5.        -7.        0.0         5.        -7.        0.0
  OSSO-CUT-1        3340         5.        -7.        0.0         5.        -7.        0.0
  OSSO-CUT-1        3341         9.       -35.        0.0         9.       -35.        0.0
  OSSO-CUT-1        3342        11.       -37.        0.0        11.       -37.        0.0
  OSSO-CUT-1        3343        23.        25.        0.0        23.        25.        0.0
  OSSO-CUT-1        3344        18.       -27.        0.0        18.       -27.        0.0
  OSSO-CUT-1        3345         6.       -17.        0.0         6.       -17.        0.0
  OSSO-CUT-1        3346        12.       -11.        0.0        12.       -11.        0.0
  OSSO-CUT-1        3347        12.       -10.        0.0        12.       -10.        0.0
  OSSO-CUT-1        3348        18.        -9.        0.0        18.        -9.        0.0
  OSSO-CUT-1        3349        15.       -24.        0.0        15.       -24.        0.0
  OSSO-CUT-1        3350         1.         1.        0.0         1.         1.        0.0
  OSSO-CUT-1        3351   736.E-03   804.E-03        0.0   739.E-03   803.E-03        0.0
  OSSO-CUT-1        3352         1.   165.E-03        0.0         1.   165.E-03        0.0
  OSSO-CUT-1        3353         2.   856.E-03        0.0         2.   856.E-03        0.0
  OSSO-CUT-1        3354        -2.         5.        0.0        -2.         5.        0.0
  OSSO-CUT-1        3355  -923.E-03         5.        0.0  -920.E-03         5.        0.0
  OSSO-CUT-1        3356   478.E-03         2.        0.0   481.E-03         2.        0.0
  OSSO-CUT-1        3357        16.       -15.        0.0        16.       -15.        0.0
  OSSO-CUT-1        3358        16.       -16.        0.0        16.       -16.        0.0
  OSSO-CUT-1        3359         4.       -28.        0.0         4.       -28.        0.0
  OSSO-CUT-1        3360         4.       -27.        0.0         4.       -27.        0.0
  OSSO-CUT-1        3361        13.       -35.        0.0        13.       -35.        0.0
  OSSO-CUT-1        3362        13.       -34.        0.0        13.       -34.        0.0
  OSSO-CUT-1        3363        14.       -36.        0.0        14.       -36.        0.0
  OSSO-CUT-1        3364        22.        28.        0.0        22.        28.        0.0
  OSSO-CUT-1        3365        20.        26.        0.0        20.        26.        0.0
  OSSO-CUT-1        3366        21.        24.        0.0        21.        24.        0.0
  OSSO-CUT-1        3367         4.        -2.        0.0         4.        -2.        0.0
  OSSO-CUT-1        3368         6.        -2.        0.0         6.        -2.        0.0
  OSSO-CUT-1        3369        18.       -14.        0.0        18.       -14.        0.0
  OSSO-CUT-1        3370        17.       -14.        0.0        17.       -14.        0.0
  OSSO-CUT-1        3371        16.       -14.        0.0        16.       -14.        0.0
  OSSO-CUT-1        3372        15.       -15.        0.0        15.       -15.        0.0
  OSSO-CUT-1        3373        20.       -10.        0.0        20.       -10.        0.0
  OSSO-CUT-1        3374        20.       -11.        0.0        20.       -11.        0.0
  OSSO-CUT-1        3375         4.       -19.        0.0         4.       -19.        0.0
  OSSO-CUT-1        3376         2.        -9.        0.0         2.        -9.        0.0
  OSSO-CUT-1        3377         3.       -10.        0.0         3.       -10.        0.0
  OSSO-CUT-1        3378        11.       -10.        0.0        11.       -10.        0.0
  OSSO-CUT-1        3379        16.       -11.        0.0        16.       -11.        0.0
  OSSO-CUT-1        3380        14.       -11.        0.0        14.       -11.        0.0
  OSSO-CUT-1        3381        16.       -10.        0.0        16.       -10.        0.0
  OSSO-CUT-1        3382        17.       -10.        0.0        17.       -10.        0.0
  OSSO-CUT-1        3383         5.       -29.        0.0         5.       -29.        0.0
  OSSO-CUT-1        3384         5.       -28.        0.0         5.       -28.        0.0
  OSSO-CUT-1        3385         4.       -29.        0.0         4.       -29.        0.0
  OSSO-CUT-1        3386         1.       -28.        0.0         1.       -28.        0.0
  OSSO-CUT-1        3387         1.       -27.        0.0         1.       -27.        0.0
  OSSO-CUT-1        3388   565.E-03       -27.        0.0   566.E-03       -27.        0.0
  OSSO-CUT-1        3389        26.        25.        0.0        26.        25.        0.0
  OSSO-CUT-1        3390        11.       -31.        0.0        11.       -31.        0.0
  OSSO-CUT-1        3391        12.       -32.        0.0        12.       -32.        0.0
  OSSO-CUT-1        3392        11.       -31.        0.0        11.       -31.        0.0
  OSSO-CUT-1        3393   212.E-03         7.        0.0   215.E-03         7.        0.0
  OSSO-CUT-1        3394  -372.E-03         6.        0.0  -369.E-03         6.        0.0
  OSSO-CUT-1        3395   455.E-03         6.        0.0   458.E-03         6.        0.0
  OSSO-CUT-1        3396        12.       -20.        0.0        12.       -20.        0.0
  OSSO-CUT-1        3397        12.       -21.        0.0        12.       -21.        0.0
  OSSO-CUT-1        3398        21.       -11.        0.0        21.       -11.        0.0
  OSSO-CUT-1        3399         7.        -6.        0.0         7.        -6.        0.0
  OSSO-CUT-1        3400         7.        -6.        0.0         7.        -6.        0.0
  OSSO-CUT-1        3401         6.        -7.        0.0         6.        -7.        0.0
  OSSO-CUT-1        3402         8.        -8.        0.0         8.        -8.        0.0
  OSSO-CUT-1        3403         9.        -8.        0.0         9.        -8.        0.0
  OSSO-CUT-1        3404         8.        -7.        0.0         8.        -7.        0.0
  OSSO-CUT-1        3405         2.       -35.        0.0         2.       -35.        0.0
  OSSO-CUT-1        3406        17.       -11.        0.0        17.       -11.        0.0
  OSSO-CUT-1        3407         4.       -10.        0.0         4.       -10.        0.0
  OSSO-CUT-1        3408         4.        -9.        0.0         4.        -9.        0.0
  OSSO-CUT-1        3409        14.       -17.        0.0        14.       -17.        0.0
  OSSO-CUT-1        3410        13.       -18.        0.0        13.       -18.        0.0
  OSSO-CUT-1        3411        18.       -12.        0.0        18.       -12.        0.0
  OSSO-CUT-1        3412        18.       -12.        0.0        18.       -12.        0.0
  OSSO-CUT-1        3413         5.       -12.        0.0         5.       -12.        0.0
  OSSO-CUT-1        3414         5.       -19.        0.0         5.       -19.        0.0
  OSSO-CUT-1        3415         5.       -19.        0.0         5.       -19.        0.0
  OSSO-CUT-1        3416         3.       -26.        0.0         3.       -26.        0.0
  OSSO-CUT-1        3417         3.       -25.        0.0         3.       -25.        0.0
  OSSO-CUT-1        3418         4.       -27.        0.0         4.       -27.        0.0
  OSSO-CUT-1        3419         5.       -27.        0.0         5.       -27.        0.0
  OSSO-CUT-1        3420         6.       -27.        0.0         6.       -27.        0.0
  OSSO-CUT-1        3421         8.       -30.        0.0         8.       -30.        0.0
  OSSO-CUT-1        3422         8.       -31.        0.0         8.       -31.        0.0
  OSSO-CUT-1        3423        19.       -14.        0.0        19.       -14.        0.0
  OSSO-CUT-1        3424        19.       -13.        0.0        19.       -13.        0.0
  OSSO-CUT-1        3425         9.        -9.        0.0         9.        -9.        0.0
  OSSO-CUT-1        3426        15.       -16.        0.0        15.       -16.        0.0
  OSSO-CUT-1        3427        14.       -17.        0.0        14.       -17.        0.0
  OSSO-CUT-1        3428        16.       -12.        0.0        16.       -12.        0.0
  OSSO-CUT-1        3429        17.       -11.        0.0        17.       -11.        0.0
  OSSO-CUT-1        3430         5.       -11.        0.0         5.       -11.        0.0
  OSSO-CUT-1        3431         4.       -11.        0.0         4.       -11.        0.0
  OSSO-CUT-1        3432         9.       -17.        0.0         9.       -17.        0.0
  OSSO-CUT-1        3433         9.       -16.        0.0         9.       -16.        0.0
  OSSO-CUT-1        3434         8.       -16.        0.0         8.       -16.        0.0
  OSSO-CUT-1        3435         8.       -17.        0.0         8.       -17.        0.0
  OSSO-CUT-1        3436        13.       -27.        0.0        13.       -27.        0.0
  OSSO-CUT-1        3437        12.       -27.        0.0        12.       -27.        0.0
  OSSO-CUT-1        3438         4.       -24.        0.0         4.       -24.        0.0
  OSSO-CUT-1        3439         3.       -25.        0.0         3.       -25.        0.0
  OSSO-CUT-1        3440         5.       -32.        0.0         5.       -32.        0.0
  OSSO-CUT-1        3441         7.       -29.        0.0         7.       -29.        0.0
  OSSO-CUT-1        3442         8.       -29.        0.0         8.       -29.        0.0
  OSSO-CUT-1        3443         8.       -28.        0.0         8.       -28.        0.0
  OSSO-CUT-1        3444        16.       -13.        0.0        16.       -13.        0.0
  OSSO-CUT-1        3445        12.       -17.        0.0        12.       -17.        0.0
  OSSO-CUT-1        3446        11.       -17.        0.0        11.       -17.        0.0
  OSSO-CUT-1        3447        12.       -18.        0.0        12.       -18.        0.0
  OSSO-CUT-1        3448        14.       -16.        0.0        14.       -16.        0.0
  OSSO-CUT-1        3449        13.       -17.        0.0        13.       -17.        0.0
  OSSO-CUT-1        3450         5.       -10.        0.0         5.       -10.        0.0
  OSSO-CUT-1        3451         4.       -10.        0.0         5.       -10.        0.0
  OSSO-CUT-1        3452        15.       -14.        0.0        15.       -14.        0.0
  OSSO-CUT-1        3453         6.       -18.        0.0         6.       -18.        0.0
  OSSO-CUT-1        3454         7.       -17.        0.0         7.       -17.        0.0
  OSSO-CUT-1        3455         7.       -17.        0.0         7.       -17.        0.0
  OSSO-CUT-1        3456        11.       -22.        0.0        11.       -22.        0.0
  OSSO-CUT-1        3457         5.        -7.        0.0         5.        -7.        0.0
  OSSO-CUT-1        3458         4.        -8.        0.0         4.        -8.        0.0
  OSSO-CUT-1        3459         5.        -8.        0.0         5.        -8.        0.0
  OSSO-CUT-1        3460        11.       -28.        0.0        11.       -28.        0.0
  OSSO-CUT-1        3461        11.       -27.        0.0        11.       -27.        0.0
  OSSO-CUT-1        3462        12.       -30.        0.0        12.       -30.        0.0
  OSSO-CUT-1        3463        11.       -29.        0.0        11.       -29.        0.0
  OSSO-CUT-1        3464         5.       -11.        0.0         5.       -11.        0.0
  OSSO-CUT-1        3465         6.       -11.        0.0         6.       -11.        0.0
  OSSO-CUT-1        3466         7.       -18.        0.0         7.       -18.        0.0
  OSSO-CUT-1        3467        14.       -26.        0.0        14.       -26.        0.0
  OSSO-CUT-1        3468        13.       -25.        0.0        13.       -25.        0.0
  OSSO-CUT-1        3469        12.       -26.        0.0        12.       -26.        0.0
  OSSO-CUT-1        3470         5.       -33.        0.0         5.       -33.        0.0
  OSSO-CUT-1        3471         7.       -33.        0.0         7.       -33.        0.0
  OSSO-CUT-1        3472         8.       -32.        0.0         8.       -32.        0.0
  OSSO-CUT-1        3473         8.       -33.        0.0         8.       -33.        0.0
  OSSO-CUT-1        3474         6.       -28.        0.0         6.       -28.        0.0
  OSSO-CUT-1        3475         6.       -29.        0.0         6.       -29.        0.0
  OSSO-CUT-1        3476  -341.E-03       -22.        0.0  -340.E-03       -22.        0.0
  OSSO-CUT-1        3477  -946.E-03       -22.        0.0  -945.E-03       -22.        0.0
  OSSO-CUT-1        3478         2.       -24.        0.0         2.       -24.        0.0
  OSSO-CUT-1        3479        13.       -15.        0.0        13.       -15.        0.0
  OSSO-CUT-1        3480        14.       -15.        0.0        14.       -15.        0.0
  OSSO-CUT-1        3481        11.       -15.        0.0        11.       -15.        0.0
  OSSO-CUT-1        3482        11.       -16.        0.0        11.       -16.        0.0
  OSSO-CUT-1        3483        12.       -15.        0.0        12.       -15.        0.0
  OSSO-CUT-1        3484        11.       -15.        0.0        11.       -15.        0.0
  OSSO-CUT-1        3485        12.       -12.        0.0        12.       -12.        0.0
  OSSO-CUT-1        3486        12.       -13.        0.0        12.       -13.        0.0
  OSSO-CUT-1        3487        11.       -11.        0.0        11.       -11.        0.0
  OSSO-CUT-1        3488         5.       -22.        0.0         5.       -22.        0.0
  OSSO-CUT-1        3489         8.       -20.        0.0         8.       -20.        0.0
  OSSO-CUT-1        3490         8.       -19.        0.0         8.       -19.        0.0
  OSSO-CUT-1        3491        12.       -15.        0.0        12.       -15.        0.0
  OSSO-CUT-1        3492        12.       -14.        0.0        12.       -14.        0.0
  OSSO-CUT-1        3493        15.       -14.        0.0        15.       -14.        0.0
  OSSO-CUT-1        3494        15.       -13.        0.0        15.       -13.        0.0
  OSSO-CUT-1        3495   504.E-03       -28.        0.0   505.E-03       -28.        0.0
  OSSO-CUT-1        3496  -169.E-03       -27.        0.0  -169.E-03       -27.        0.0
  OSSO-CUT-1        3497        12.       -25.        0.0        12.       -25.        0.0
  OSSO-CUT-1        3498        11.       -24.        0.0        11.       -24.        0.0
  OSSO-CUT-1        3499        12.       -25.        0.0        12.       -25.        0.0
  OSSO-CUT-1        3500         7.       -11.        0.0         7.       -11.        0.0
  OSSO-CUT-1        3501         7.       -10.        0.0         7.       -10.        0.0
  OSSO-CUT-1        3502         6.       -12.        0.0         6.       -12.        0.0
  OSSO-CUT-1        3503         7.       -12.        0.0         7.       -12.        0.0
  OSSO-CUT-1        3504         8.        -9.        0.0         8.        -9.        0.0
  OSSO-CUT-1        3505         8.       -10.        0.0         8.       -10.        0.0
  OSSO-CUT-1        3506        13.       -33.        0.0        13.       -33.        0.0
  OSSO-CUT-1        3507        13.       -32.        0.0        13.       -32.        0.0
  OSSO-CUT-1        3508         9.       -12.        0.0         9.       -12.        0.0
  OSSO-CUT-1        3509        10.       -11.        0.0        10.       -11.        0.0
  OSSO-CUT-1        3510         9.       -11.        0.0         9.       -11.        0.0
  OSSO-CUT-1        3511        11.       -14.        0.0        11.       -14.        0.0
  OSSO-CUT-1        3512         5.        -9.        0.0         5.        -9.        0.0
  OSSO-CUT-1        3513        14.       -25.        0.0        14.       -25.        0.0
  OSSO-CUT-1        3514        13.       -24.        0.0        13.       -24.        0.0
  OSSO-CUT-1        3515        15.       -26.        0.0        15.       -26.        0.0
  OSSO-CUT-1        3516         9.       -31.        0.0         9.       -31.        0.0
  OSSO-CUT-1        3517         9.       -29.        0.0         9.       -29.        0.0
  OSSO-CUT-1        3518        12.       -16.        0.0        12.       -16.        0.0
  OSSO-CUT-1        3519         7.       -26.        0.0         7.       -26.        0.0
  OSSO-CUT-1        3520         7.       -26.        0.0         7.       -26.        0.0
  OSSO-CUT-1        3521         8.       -27.        0.0         8.       -27.        0.0
  OSSO-CUT-1        3522         8.       -26.        0.0         8.       -26.        0.0
  OSSO-CUT-1        3523         7.       -23.        0.0         7.       -23.        0.0
  OSSO-CUT-1        3524         6.       -22.        0.0         6.       -22.        0.0
  OSSO-CUT-1        3525         5.       -24.        0.0         5.       -24.        0.0
  OSSO-CUT-1        3526         7.       -22.        0.0         7.       -22.        0.0
  OSSO-CUT-1        3527         7.       -13.        0.0         7.       -13.        0.0
  OSSO-CUT-1        3528         8.       -11.        0.0         8.       -11.        0.0
  OSSO-CUT-1        3529         8.       -13.        0.0         8.       -13.        0.0
  OSSO-CUT-1        3530         9.       -12.        0.0         9.       -12.        0.0
  OSSO-CUT-1        3531        -2.       -26.        0.0        -2.       -26.        0.0
  OSSO-CUT-1        3532  -796.E-03       -27.        0.0  -795.E-03       -27.        0.0
  OSSO-CUT-1        3533        11.       -19.        0.0        11.       -19.        0.0
  OSSO-CUT-1        3534         9.       -34.        0.0         9.       -34.        0.0
  OSSO-CUT-1        3535         9.       -13.        0.0         9.       -13.        0.0
  OSSO-CUT-1        3536         9.       -13.        0.0         9.       -13.        0.0
  OSSO-CUT-1        3537        10.       -14.        0.0        10.       -14.        0.0
  OSSO-CUT-1        3538         7.       -24.        0.0         7.       -24.        0.0
  OSSO-CUT-1        3539         8.       -24.        0.0         8.       -24.        0.0
  OSSO-CUT-1        3540         8.       -23.        0.0         8.       -23.        0.0
  OSSO-CUT-1        3541        10.       -24.        0.0        10.       -24.        0.0
  OSSO-CUT-1        3542         9.       -23.        0.0         9.       -23.        0.0
  OSSO-CUT-1        3543         9.       -25.        0.0         9.       -25.        0.0
  OSSO-CUT-1        3544         9.       -23.        0.0         9.       -23.        0.0
  OSSO-CUT-1        3545         8.       -22.        0.0         8.       -22.        0.0
  OSSO-CUT-1        3546         9.       -30.        0.0         9.       -30.        0.0
  OSSO-CUT-1        3547        11.       -26.        0.0        11.       -26.        0.0
  OSSO-CUT-1        3548        12.       -16.        0.0        12.       -16.        0.0
  OSSO-CUT-1        3549        11.       -17.        0.0        11.       -17.        0.0
  OSSO-CUT-1        3550         9.       -20.        0.0         9.       -20.        0.0
  OSSO-CUT-1        3551         8.       -21.        0.0         8.       -21.        0.0
  OSSO-CUT-1        3552         9.       -20.        0.0         9.       -20.        0.0
  OSSO-CUT-1        3553        10.       -31.        0.0        10.       -31.        0.0
  OSSO-CUT-1        3554        10.       -15.        0.0        10.       -15.        0.0
  OSSO-CUT-1        3555        10.       -20.        0.0        10.       -20.        0.0
  OSSO-CUT-1        3556        10.       -20.        0.0        10.       -20.        0.0
  OSSO-CUT-1        3557        11.       -21.        0.0        11.       -21.        0.0
  OSSO-CUT-1        3558        10.       -16.        0.0        10.       -16.        0.0
  OSSO-CUT-1        3559         9.       -17.        0.0         9.       -17.        0.0
  OSSO-CUT-1        3560         8.       -18.        0.0         8.       -18.        0.0
  OSSO-CUT-1        3561         8.       -19.        0.0         8.       -19.        0.0
  OSSO-CUT-1        3562         8.       -18.        0.0         8.       -18.        0.0
  OSSO-CUT-1        3563         7.       -19.        0.0         7.       -19.        0.0
  OSSO-CUT-1        3564         8.       -25.        0.0         8.       -25.        0.0
  OSSO-CUT-1        3565         9.       -26.        0.0         9.       -26.        0.0
  OSSO-CUT-1        3566        10.       -26.        0.0        10.       -26.        0.0
  OSSO-CUT-1        3567         7.       -18.        0.0         7.       -18.        0.0
  OSSO-CUT-1        3568        26.        21.        0.0        26.        21.        0.0
  OSSO-CUT-1        3569        26.         9.        0.0        26.         9.        0.0
  OSSO-CUT-1        3570        -6.         5.        0.0        -6.         5.        0.0
  OSSO-CUT-1        3571        14.       -38.        0.0        14.       -38.        0.0
  OSSO-CUT-1        3572        13.       -38.        0.0        13.       -38.        0.0
  OSSO-CUT-1        3573         3.       -37.        0.0         3.       -37.        0.0
  OSSO-CUT-1        3574         3.       -36.        0.0         3.       -36.        0.0
  OSSO-CUT-1        3575         2.       -36.        0.0         2.       -36.        0.0
  OSSO-CUT-1        3576        12.       -38.        0.0        12.       -38.        0.0
  OSSO-CUT-1        3577        22.        24.        0.0        22.        24.        0.0
  OSSO-CUT-1        3578        14.       -12.        0.0        14.       -12.        0.0
  OSSO-CUT-1        3579         5.       -33.        0.0         5.       -33.        0.0
  OSSO-CUT-1        3580        15.       -31.        0.0        15.       -31.        0.0
  OSSO-CUT-1        3581        14.       -31.        0.0        14.       -31.        0.0
  OSSO-CUT-1        3582        14.       -30.        0.0        14.       -30.        0.0


  Part Instance     Node ID  Attached elements   S, Mises
----------------------------------------------------------
    ASSEMBLY           1          2    NoValue
    ASSEMBLY           2          1    NoValue
  IMPLANTE-2-COPY4-1           1          6   605.E-03
  IMPLANTE-2-COPY4-1           1        267   605.E-03
  IMPLANTE-2-COPY4-1           1        273   629.E-03
  IMPLANTE-2-COPY4-1           1        338   629.E-03
  IMPLANTE-2-COPY4-1           2         13   651.E-03
  IMPLANTE-2-COPY4-1           2        331   604.E-03
  IMPLANTE-2-COPY4-1           2        333   604.E-03
  IMPLANTE-2-COPY4-1           3         30         1.
  IMPLANTE-2-COPY4-1           4          2   981.E-03
  IMPLANTE-2-COPY4-1           5         14         1.
  IMPLANTE-2-COPY4-1           5         15         1.
  IMPLANTE-2-COPY4-1           5         31         1.
  IMPLANTE-2-COPY4-1           6         17   850.E-03
  IMPLANTE-2-COPY4-1           6         18   850.E-03
  IMPLANTE-2-COPY4-1           6         20   850.E-03
  IMPLANTE-2-COPY4-1           7          4   799.E-03
  IMPLANTE-2-COPY4-1           7         70   799.E-03
  IMPLANTE-2-COPY4-1           8         45         1.
  IMPLANTE-2-COPY4-1           9         53   462.E-03
  IMPLANTE-2-COPY4-1          10         23   678.E-03
  IMPLANTE-2-COPY4-1          10         68   678.E-03
  IMPLANTE-2-COPY4-1          11         26   791.E-03
  IMPLANTE-2-COPY4-1          11         27   791.E-03
  IMPLANTE-2-COPY4-1          11         74   791.E-03
  IMPLANTE-2-COPY4-1          12          6   664.E-03
  IMPLANTE-2-COPY4-1          12         29   664.E-03
  IMPLANTE-2-COPY4-1          12         75   664.E-03
  IMPLANTE-2-COPY4-1          13          7   253.E-03
  IMPLANTE-2-COPY4-1          13         69   253.E-03
  IMPLANTE-2-COPY4-1          14         69   651.E-03
  IMPLANTE-2-COPY4-1          15        302         1.
  IMPLANTE-2-COPY4-1          16        343         4.
  IMPLANTE-2-COPY4-1          16        369         4.
  IMPLANTE-2-COPY4-1          17        387         3.
  IMPLANTE-2-COPY4-1          17        562         3.
  IMPLANTE-2-COPY4-1          18        313   185.E-03
  IMPLANTE-2-COPY4-1          19          6   662.E-03
  IMPLANTE-2-COPY4-1          19         29   662.E-03
  IMPLANTE-2-COPY4-1          19        273   791.E-03
  IMPLANTE-2-COPY4-1          19        307   791.E-03
  IMPLANTE-2-COPY4-1          20         28   557.E-03
  IMPLANTE-2-COPY4-1          20         29   557.E-03
  IMPLANTE-2-COPY4-1          20        296   627.E-03
  IMPLANTE-2-COPY4-1          20        307   627.E-03
  IMPLANTE-2-COPY4-1          21          5   397.E-03
  IMPLANTE-2-COPY4-1          21         28   397.E-03
  IMPLANTE-2-COPY4-1          21        295   589.E-03
  IMPLANTE-2-COPY4-1          21        296   589.E-03
  IMPLANTE-2-COPY4-1          22          5   440.E-03
  IMPLANTE-2-COPY4-1          22         27   440.E-03
  IMPLANTE-2-COPY4-1          22        295   623.E-03
  IMPLANTE-2-COPY4-1          22        306   623.E-03
  IMPLANTE-2-COPY4-1          23         26   679.E-03
  IMPLANTE-2-COPY4-1          23         27   679.E-03
  IMPLANTE-2-COPY4-1          23        293   870.E-03
  IMPLANTE-2-COPY4-1          23        306   870.E-03
  IMPLANTE-2-COPY4-1          24         25   856.E-03
  IMPLANTE-2-COPY4-1          24         26   856.E-03
  IMPLANTE-2-COPY4-1          24        274         1.
  IMPLANTE-2-COPY4-1          24        293         1.
  IMPLANTE-2-COPY4-1          25         25   865.E-03
  IMPLANTE-2-COPY4-1          25         81   865.E-03
  IMPLANTE-2-COPY4-1          25        274         1.
  IMPLANTE-2-COPY4-1          25        291         1.
  IMPLANTE-2-COPY4-1          26          9   905.E-03
  IMPLANTE-2-COPY4-1          26         81   905.E-03
  IMPLANTE-2-COPY4-1          26        291         1.
  IMPLANTE-2-COPY4-1          26        347         1.
  IMPLANTE-2-COPY4-1          27          9   950.E-03
  IMPLANTE-2-COPY4-1          27         79   950.E-03
  IMPLANTE-2-COPY4-1          27        289         1.
  IMPLANTE-2-COPY4-1          27        347         1.
  IMPLANTE-2-COPY4-1          28         66   988.E-03
  IMPLANTE-2-COPY4-1          28         79   988.E-03
  IMPLANTE-2-COPY4-1          28        270         1.
  IMPLANTE-2-COPY4-1          28        289         1.
  IMPLANTE-2-COPY4-1          29         65         1.
  IMPLANTE-2-COPY4-1          29         66         1.
  IMPLANTE-2-COPY4-1          29        270         1.
  IMPLANTE-2-COPY4-1          29        327         1.
  IMPLANTE-2-COPY4-1          30         12         1.
  IMPLANTE-2-COPY4-1          30         65         1.
  IMPLANTE-2-COPY4-1          30        327         1.
  IMPLANTE-2-COPY4-1          30        346         1.
  IMPLANTE-2-COPY4-1          31         12         1.
  IMPLANTE-2-COPY4-1          31         21         1.
  IMPLANTE-2-COPY4-1          31        271         1.
  IMPLANTE-2-COPY4-1          31        346         1.
  IMPLANTE-2-COPY4-1          32         21   965.E-03
  IMPLANTE-2-COPY4-1          32         73   965.E-03
  IMPLANTE-2-COPY4-1          32        269         1.
  IMPLANTE-2-COPY4-1          32        271         1.
  IMPLANTE-2-COPY4-1          33         18   869.E-03
  IMPLANTE-2-COPY4-1          33         71   869.E-03
  IMPLANTE-2-COPY4-1          33         73   869.E-03
  IMPLANTE-2-COPY4-1          33        269   981.E-03
  IMPLANTE-2-COPY4-1          33        276   981.E-03
  IMPLANTE-2-COPY4-1          34         17   629.E-03
  IMPLANTE-2-COPY4-1          34         18   629.E-03
  IMPLANTE-2-COPY4-1          34        276   766.E-03
  IMPLANTE-2-COPY4-1          34        284   766.E-03
  IMPLANTE-2-COPY4-1          35         16   750.E-03
  IMPLANTE-2-COPY4-1          35         17   750.E-03
  IMPLANTE-2-COPY4-1          35        284   755.E-03
  IMPLANTE-2-COPY4-1          35        345   755.E-03
  IMPLANTE-2-COPY4-1          36          3   741.E-03
  IMPLANTE-2-COPY4-1          36         16   741.E-03
  IMPLANTE-2-COPY4-1          36        278   834.E-03
  IMPLANTE-2-COPY4-1          36        345   834.E-03
  IMPLANTE-2-COPY4-1          37          3   803.E-03
  IMPLANTE-2-COPY4-1          37         15   803.E-03
  IMPLANTE-2-COPY4-1          37        278   802.E-03
  IMPLANTE-2-COPY4-1          37        280   802.E-03
  IMPLANTE-2-COPY4-1          38         14   954.E-03
  IMPLANTE-2-COPY4-1          38         15   954.E-03
  IMPLANTE-2-COPY4-1          38        280   976.E-03
  IMPLANTE-2-COPY4-1          38        281   976.E-03
  IMPLANTE-2-COPY4-1          39         13   846.E-03
  IMPLANTE-2-COPY4-1          39         14   846.E-03
  IMPLANTE-2-COPY4-1          39        281   956.E-03
  IMPLANTE-2-COPY4-1          39        333   956.E-03
  IMPLANTE-2-COPY4-1          40          1   766.E-03
  IMPLANTE-2-COPY4-1          40         13   766.E-03
  IMPLANTE-2-COPY4-1          41          1         1.
  IMPLANTE-2-COPY4-1          41         30         1.
  IMPLANTE-2-COPY4-1          42          2   801.E-03
  IMPLANTE-2-COPY4-1          42         30   801.E-03
  IMPLANTE-2-COPY4-1          43          2   901.E-03
  IMPLANTE-2-COPY4-1          43         31   901.E-03
  IMPLANTE-2-COPY4-1          44          3   483.E-03
  IMPLANTE-2-COPY4-1          44         15   483.E-03
  IMPLANTE-2-COPY4-1          45          3   639.E-03
  IMPLANTE-2-COPY4-1          45         16   639.E-03
  IMPLANTE-2-COPY4-1          46         16   703.E-03
  IMPLANTE-2-COPY4-1          46         17   703.E-03
  IMPLANTE-2-COPY4-1          47          4   629.E-03
  IMPLANTE-2-COPY4-1          47         20   629.E-03
  IMPLANTE-2-COPY4-1          48         70   876.E-03
  IMPLANTE-2-COPY4-1          48         72   876.E-03
  IMPLANTE-2-COPY4-1          49         22   933.E-03
  IMPLANTE-2-COPY4-1          49         72   933.E-03
  IMPLANTE-2-COPY4-1          50         22   973.E-03
  IMPLANTE-2-COPY4-1          50         76   973.E-03
  IMPLANTE-2-COPY4-1          51         76         1.
  IMPLANTE-2-COPY4-1          51         87         1.
  IMPLANTE-2-COPY4-1          52         33         1.
  IMPLANTE-2-COPY4-1          52         87         1.
  IMPLANTE-2-COPY4-1          53         33         1.
  IMPLANTE-2-COPY4-1          53         61         1.
  IMPLANTE-2-COPY4-1          54         60         1.
  IMPLANTE-2-COPY4-1          54         61         1.
  IMPLANTE-2-COPY4-1          55         60         1.
  IMPLANTE-2-COPY4-1          55         89         1.
  IMPLANTE-2-COPY4-1          56         57         1.
  IMPLANTE-2-COPY4-1          56         89         1.
  IMPLANTE-2-COPY4-1          57         56         1.
  IMPLANTE-2-COPY4-1          57         57         1.
  IMPLANTE-2-COPY4-1          58         56         1.
  IMPLANTE-2-COPY4-1          58         85         1.
  IMPLANTE-2-COPY4-1          59         82         1.
  IMPLANTE-2-COPY4-1          59         85         1.
  IMPLANTE-2-COPY4-1          60         41         1.
  IMPLANTE-2-COPY4-1          60         82         1.
  IMPLANTE-2-COPY4-1          61         41         1.
  IMPLANTE-2-COPY4-1          61         83         1.
  IMPLANTE-2-COPY4-1          62         44         1.
  IMPLANTE-2-COPY4-1          62         83         1.
  IMPLANTE-2-COPY4-1          63         44         1.
  IMPLANTE-2-COPY4-1          63         45         1.
  IMPLANTE-2-COPY4-1          64         45   784.E-03
  IMPLANTE-2-COPY4-1          64         99   784.E-03
  IMPLANTE-2-COPY4-1          65         99   757.E-03
  IMPLANTE-2-COPY4-1          65        129   757.E-03
  IMPLANTE-2-COPY4-1          66        100   669.E-03
  IMPLANTE-2-COPY4-1          66        129   669.E-03
  IMPLANTE-2-COPY4-1          67         46   610.E-03
  IMPLANTE-2-COPY4-1          67        100   610.E-03
  IMPLANTE-2-COPY4-1          68         46   568.E-03
  IMPLANTE-2-COPY4-1          68         47   568.E-03
  IMPLANTE-2-COPY4-1          69         47   543.E-03
  IMPLANTE-2-COPY4-1          69         48   543.E-03
  IMPLANTE-2-COPY4-1          70         38   531.E-03
  IMPLANTE-2-COPY4-1          70         48   531.E-03
  IMPLANTE-2-COPY4-1          71         38   526.E-03
  IMPLANTE-2-COPY4-1          71         40   526.E-03
  IMPLANTE-2-COPY4-1          72         40   518.E-03
  IMPLANTE-2-COPY4-1          72         84   518.E-03
  IMPLANTE-2-COPY4-1          73         53   486.E-03
  IMPLANTE-2-COPY4-1          73         84   486.E-03
  IMPLANTE-2-COPY4-1          74         51   484.E-03
  IMPLANTE-2-COPY4-1          74         53   484.E-03
  IMPLANTE-2-COPY4-1          75         39   467.E-03
  IMPLANTE-2-COPY4-1          75         51   467.E-03
  IMPLANTE-2-COPY4-1          76         39   427.E-03
  IMPLANTE-2-COPY4-1          76         49   427.E-03
  IMPLANTE-2-COPY4-1          77         49   379.E-03
  IMPLANTE-2-COPY4-1          77        107   379.E-03
  IMPLANTE-2-COPY4-1          78         52   325.E-03
  IMPLANTE-2-COPY4-1          78        107   325.E-03
  IMPLANTE-2-COPY4-1          79         52   272.E-03
  IMPLANTE-2-COPY4-1          79         54   272.E-03
  IMPLANTE-2-COPY4-1          80         54   225.E-03
  IMPLANTE-2-COPY4-1          80        102   225.E-03
  IMPLANTE-2-COPY4-1          81         36   196.E-03
  IMPLANTE-2-COPY4-1          81        102   196.E-03
  IMPLANTE-2-COPY4-1          82         36   191.E-03
  IMPLANTE-2-COPY4-1          82         93   191.E-03
  IMPLANTE-2-COPY4-1          83         35   211.E-03
  IMPLANTE-2-COPY4-1          83         93   211.E-03
  IMPLANTE-2-COPY4-1          84         35   248.E-03
  IMPLANTE-2-COPY4-1          84         59   248.E-03
  IMPLANTE-2-COPY4-1          85         59   294.E-03
  IMPLANTE-2-COPY4-1          85         98   294.E-03
  IMPLANTE-2-COPY4-1          86         98   348.E-03
  IMPLANTE-2-COPY4-1          86        101   348.E-03
  IMPLANTE-2-COPY4-1          87         67   409.E-03
  IMPLANTE-2-COPY4-1          87        101   409.E-03
  IMPLANTE-2-COPY4-1          88         67   481.E-03
  IMPLANTE-2-COPY4-1          88         88   481.E-03
  IMPLANTE-2-COPY4-1          89         68   568.E-03
  IMPLANTE-2-COPY4-1          89         88   568.E-03
  IMPLANTE-2-COPY4-1          90         23   789.E-03
  IMPLANTE-2-COPY4-1          90         74   789.E-03
  IMPLANTE-2-COPY4-1          91          5   357.E-03
  IMPLANTE-2-COPY4-1          91         27   357.E-03
  IMPLANTE-2-COPY4-1          92          5   351.E-03
  IMPLANTE-2-COPY4-1          92         28   351.E-03
  IMPLANTE-2-COPY4-1          93         28   232.E-03
  IMPLANTE-2-COPY4-1          93         29   232.E-03
  IMPLANTE-2-COPY4-1          94          7   426.E-03
  IMPLANTE-2-COPY4-1          94         75   426.E-03
  IMPLANTE-2-COPY4-1          95          8   576.E-03
  IMPLANTE-2-COPY4-1          95         69   576.E-03
  IMPLANTE-2-COPY4-1          96          8   527.E-03
  IMPLANTE-2-COPY4-1          96        267   527.E-03
  IMPLANTE-2-COPY4-1          97        272   592.E-03
  IMPLANTE-2-COPY4-1          97        338   592.E-03
  IMPLANTE-2-COPY4-1          98        272   630.E-03
  IMPLANTE-2-COPY4-1          98        299   630.E-03
  IMPLANTE-2-COPY4-1          99        299   700.E-03
  IMPLANTE-2-COPY4-1          99        301   700.E-03
  IMPLANTE-2-COPY4-1         100        301   793.E-03
  IMPLANTE-2-COPY4-1         100        312   793.E-03
  IMPLANTE-2-COPY4-1         101        302   976.E-03
  IMPLANTE-2-COPY4-1         101        312   976.E-03
  IMPLANTE-2-COPY4-1         102        302   878.E-03
  IMPLANTE-2-COPY4-1         102        383   878.E-03
  IMPLANTE-2-COPY4-1         103        383   843.E-03
  IMPLANTE-2-COPY4-1         103        384   843.E-03
  IMPLANTE-2-COPY4-1         104        311   786.E-03
  IMPLANTE-2-COPY4-1         104        384   786.E-03
  IMPLANTE-2-COPY4-1         105        311   737.E-03
  IMPLANTE-2-COPY4-1         105        341   737.E-03
  IMPLANTE-2-COPY4-1         106        341   687.E-03
  IMPLANTE-2-COPY4-1         106        385   687.E-03
  IMPLANTE-2-COPY4-1         107        309   640.E-03
  IMPLANTE-2-COPY4-1         107        385   640.E-03
  IMPLANTE-2-COPY4-1         108        309   599.E-03
  IMPLANTE-2-COPY4-1         108        373   599.E-03
  IMPLANTE-2-COPY4-1         109        373   562.E-03
  IMPLANTE-2-COPY4-1         109        381   562.E-03
  IMPLANTE-2-COPY4-1         110        337   530.E-03
  IMPLANTE-2-COPY4-1         110        381   530.E-03
  IMPLANTE-2-COPY4-1         111        337   504.E-03
  IMPLANTE-2-COPY4-1         111        368   504.E-03
  IMPLANTE-2-COPY4-1         112        342   483.E-03
  IMPLANTE-2-COPY4-1         112        368   483.E-03
  IMPLANTE-2-COPY4-1         113        342   468.E-03
  IMPLANTE-2-COPY4-1         113        374   468.E-03
  IMPLANTE-2-COPY4-1         114        374   460.E-03
  IMPLANTE-2-COPY4-1         114        379   460.E-03
  IMPLANTE-2-COPY4-1         115        371   471.E-03
  IMPLANTE-2-COPY4-1         115        379   471.E-03
  IMPLANTE-2-COPY4-1         116        294   511.E-03
  IMPLANTE-2-COPY4-1         116        371   511.E-03
  IMPLANTE-2-COPY4-1         117        294         1.
  IMPLANTE-2-COPY4-1         117        343         1.
  IMPLANTE-2-COPY4-1         118        369         5.
  IMPLANTE-2-COPY4-1         118        476         5.
  IMPLANTE-2-COPY4-1         119        476         5.
  IMPLANTE-2-COPY4-1         119        562         5.
  IMPLANTE-2-COPY4-1         120        288   999.E-03
  IMPLANTE-2-COPY4-1         120        387   999.E-03
  IMPLANTE-2-COPY4-1         121        275   323.E-03
  IMPLANTE-2-COPY4-1         121        288   323.E-03
  IMPLANTE-2-COPY4-1         122        275   291.E-03
  IMPLANTE-2-COPY4-1         122        358   291.E-03
  IMPLANTE-2-COPY4-1         123        350   274.E-03
  IMPLANTE-2-COPY4-1         123        358   274.E-03
  IMPLANTE-2-COPY4-1         124        350   271.E-03
  IMPLANTE-2-COPY4-1         124        392   271.E-03
  IMPLANTE-2-COPY4-1         125        392   270.E-03
  IMPLANTE-2-COPY4-1         125        405   270.E-03
  IMPLANTE-2-COPY4-1         126        287   271.E-03
  IMPLANTE-2-COPY4-1         126        405   271.E-03
  IMPLANTE-2-COPY4-1         127        287   273.E-03
  IMPLANTE-2-COPY4-1         127        324   273.E-03
  IMPLANTE-2-COPY4-1         128        324   275.E-03
  IMPLANTE-2-COPY4-1         128        389   275.E-03
  IMPLANTE-2-COPY4-1         129        389   278.E-03
  IMPLANTE-2-COPY4-1         129        403   278.E-03
  IMPLANTE-2-COPY4-1         130        349   282.E-03
  IMPLANTE-2-COPY4-1         130        403   282.E-03
  IMPLANTE-2-COPY4-1         131        321   285.E-03
  IMPLANTE-2-COPY4-1         131        349   285.E-03
  IMPLANTE-2-COPY4-1         132        321   289.E-03
  IMPLANTE-2-COPY4-1         132        394   289.E-03
  IMPLANTE-2-COPY4-1         133        344   292.E-03
  IMPLANTE-2-COPY4-1         133        394   292.E-03
  IMPLANTE-2-COPY4-1         134        344   296.E-03
  IMPLANTE-2-COPY4-1         134        390   296.E-03
  IMPLANTE-2-COPY4-1         135        390   299.E-03
  IMPLANTE-2-COPY4-1         135        406   299.E-03
  IMPLANTE-2-COPY4-1         136        320   302.E-03
  IMPLANTE-2-COPY4-1         136        406   302.E-03
  IMPLANTE-2-COPY4-1         137        320   305.E-03
  IMPLANTE-2-COPY4-1         137        397   305.E-03
  IMPLANTE-2-COPY4-1         138        397   309.E-03
  IMPLANTE-2-COPY4-1         138        400   309.E-03
  IMPLANTE-2-COPY4-1         139        355   313.E-03
  IMPLANTE-2-COPY4-1         139        400   313.E-03
  IMPLANTE-2-COPY4-1         140        332   318.E-03
  IMPLANTE-2-COPY4-1         140        355   318.E-03
  IMPLANTE-2-COPY4-1         141        282   321.E-03
  IMPLANTE-2-COPY4-1         141        332   321.E-03
  IMPLANTE-2-COPY4-1         142        282   319.E-03
  IMPLANTE-2-COPY4-1         142        396   319.E-03
  IMPLANTE-2-COPY4-1         143        315   300.E-03
  IMPLANTE-2-COPY4-1         143        396   300.E-03
  IMPLANTE-2-COPY4-1         144        313   264.E-03
  IMPLANTE-2-COPY4-1         144        315   264.E-03
  IMPLANTE-2-COPY4-1         145        313   361.E-03
  IMPLANTE-2-COPY4-1         145        314   361.E-03
  IMPLANTE-2-COPY4-1         146        283   416.E-03
  IMPLANTE-2-COPY4-1         146        314   416.E-03
  IMPLANTE-2-COPY4-1         147        283   492.E-03
  IMPLANTE-2-COPY4-1         147        329   492.E-03
  IMPLANTE-2-COPY4-1         148        329   545.E-03
  IMPLANTE-2-COPY4-1         148        330   545.E-03
  IMPLANTE-2-COPY4-1         149        330   621.E-03
  IMPLANTE-2-COPY4-1         149        331   621.E-03
  IMPLANTE-2-COPY4-1         150          1         1.
  IMPLANTE-2-COPY4-1         150          2         1.
  IMPLANTE-2-COPY4-1         150         30         1.
  IMPLANTE-2-COPY4-1         150         31         1.
  IMPLANTE-2-COPY4-1         151          4   889.E-03
  IMPLANTE-2-COPY4-1         151         19   889.E-03
  IMPLANTE-2-COPY4-1         151         20   889.E-03
  IMPLANTE-2-COPY4-1         152          7   535.E-03
  IMPLANTE-2-COPY4-1         152          8   535.E-03
  IMPLANTE-2-COPY4-1         152         69   535.E-03
  IMPLANTE-2-COPY4-1         153          4   904.E-03
  IMPLANTE-2-COPY4-1         153         10   904.E-03
  IMPLANTE-2-COPY4-1         153         19   904.E-03
  IMPLANTE-2-COPY4-1         153         70   904.E-03
  IMPLANTE-2-COPY4-1         153        118   904.E-03
  IMPLANTE-2-COPY4-1         154          7   562.E-03
  IMPLANTE-2-COPY4-1         154          8   562.E-03
  IMPLANTE-2-COPY4-1         154         75   562.E-03
  IMPLANTE-2-COPY4-1         154        267   562.E-03
  IMPLANTE-2-COPY4-1         155         12         1.
  IMPLANTE-2-COPY4-1         155         32         1.
  IMPLANTE-2-COPY4-1         155         65         1.
  IMPLANTE-2-COPY4-1         155        123         1.
  IMPLANTE-2-COPY4-1         156         21         1.
  IMPLANTE-2-COPY4-1         156         73         1.
  IMPLANTE-2-COPY4-1         156        117         1.
  IMPLANTE-2-COPY4-1         156        157         1.
  IMPLANTE-2-COPY4-1         157          9   892.E-03
  IMPLANTE-2-COPY4-1         157         78   892.E-03
  IMPLANTE-2-COPY4-1         157         79   892.E-03
  IMPLANTE-2-COPY4-1         157        121   892.E-03
  IMPLANTE-2-COPY4-1         158          9   837.E-03
  IMPLANTE-2-COPY4-1         158         78   837.E-03
  IMPLANTE-2-COPY4-1         158         80   837.E-03
  IMPLANTE-2-COPY4-1         158         81   837.E-03
  IMPLANTE-2-COPY4-1         159         25   734.E-03
  IMPLANTE-2-COPY4-1         159         26   734.E-03
  IMPLANTE-2-COPY4-1         159         74   734.E-03
  IMPLANTE-2-COPY4-1         159        116   734.E-03
  IMPLANTE-2-COPY4-1         160         65   981.E-03
  IMPLANTE-2-COPY4-1         160         66   981.E-03
  IMPLANTE-2-COPY4-1         160        103   981.E-03
  IMPLANTE-2-COPY4-1         160        123   981.E-03
  IMPLANTE-2-COPY4-1         161         38   429.E-03
  IMPLANTE-2-COPY4-1         161         48   429.E-03
  IMPLANTE-2-COPY4-1         161         97   429.E-03
  IMPLANTE-2-COPY4-1         161        128   429.E-03
  IMPLANTE-2-COPY4-1         162         47   431.E-03
  IMPLANTE-2-COPY4-1         162         48   431.E-03
  IMPLANTE-2-COPY4-1         162        125   431.E-03
  IMPLANTE-2-COPY4-1         162        128   431.E-03
  IMPLANTE-2-COPY4-1         163         51   467.E-03
  IMPLANTE-2-COPY4-1         163         53   467.E-03
  IMPLANTE-2-COPY4-1         163         84   467.E-03
  IMPLANTE-2-COPY4-1         163        169   467.E-03
  IMPLANTE-2-COPY4-1         164         70   909.E-03
  IMPLANTE-2-COPY4-1         164         72   909.E-03
  IMPLANTE-2-COPY4-1         164         77   909.E-03
  IMPLANTE-2-COPY4-1         164        118   909.E-03
  IMPLANTE-2-COPY4-1         165         37   929.E-03
  IMPLANTE-2-COPY4-1         165         56   929.E-03
  IMPLANTE-2-COPY4-1         165         85   929.E-03
  IMPLANTE-2-COPY4-1         165         92   929.E-03
  IMPLANTE-2-COPY4-1         166         44   868.E-03
  IMPLANTE-2-COPY4-1         166         83   868.E-03
  IMPLANTE-2-COPY4-1         166         95   868.E-03
  IMPLANTE-2-COPY4-1         166        138   868.E-03
  IMPLANTE-2-COPY4-1         167         76   960.E-03
  IMPLANTE-2-COPY4-1         167         87   960.E-03
  IMPLANTE-2-COPY4-1         167        119   960.E-03
  IMPLANTE-2-COPY4-1         167        132   960.E-03
  IMPLANTE-2-COPY4-1         168         34   953.E-03
  IMPLANTE-2-COPY4-1         168         60   953.E-03
  IMPLANTE-2-COPY4-1         168         89   953.E-03
  IMPLANTE-2-COPY4-1         168         91   953.E-03
  IMPLANTE-2-COPY4-1         169         41   913.E-03
  IMPLANTE-2-COPY4-1         169         82   913.E-03
  IMPLANTE-2-COPY4-1         169        127   913.E-03
  IMPLANTE-2-COPY4-1         169        135   913.E-03
  IMPLANTE-2-COPY4-1         170         33   965.E-03
  IMPLANTE-2-COPY4-1         170         87   965.E-03
  IMPLANTE-2-COPY4-1         170        132   965.E-03
  IMPLANTE-2-COPY4-1         170        133   965.E-03
  IMPLANTE-2-COPY4-1         171         37   936.E-03
  IMPLANTE-2-COPY4-1         171         56   936.E-03
  IMPLANTE-2-COPY4-1         171         57   936.E-03
  IMPLANTE-2-COPY4-1         171        131   936.E-03
  IMPLANTE-2-COPY4-1         172         34   944.E-03
  IMPLANTE-2-COPY4-1         172         57   944.E-03
  IMPLANTE-2-COPY4-1         172         89   944.E-03
  IMPLANTE-2-COPY4-1         172        131   944.E-03
  IMPLANTE-2-COPY4-1         173         22   932.E-03
  IMPLANTE-2-COPY4-1         173         72   932.E-03
  IMPLANTE-2-COPY4-1         173         77   932.E-03
  IMPLANTE-2-COPY4-1         173         96   932.E-03
  IMPLANTE-2-COPY4-1         174         41   899.E-03
  IMPLANTE-2-COPY4-1         174         83   899.E-03
  IMPLANTE-2-COPY4-1         174        127   899.E-03
  IMPLANTE-2-COPY4-1         174        138   899.E-03
  IMPLANTE-2-COPY4-1         175         22   949.E-03
  IMPLANTE-2-COPY4-1         175         76   949.E-03
  IMPLANTE-2-COPY4-1         175         96   949.E-03
  IMPLANTE-2-COPY4-1         175        119   949.E-03
  IMPLANTE-2-COPY4-1         176         82   921.E-03
  IMPLANTE-2-COPY4-1         176         85   921.E-03
  IMPLANTE-2-COPY4-1         176         92   921.E-03
  IMPLANTE-2-COPY4-1         176        135   921.E-03
  IMPLANTE-2-COPY4-1         177         60   960.E-03
  IMPLANTE-2-COPY4-1         177         61   960.E-03
  IMPLANTE-2-COPY4-1         177         62   960.E-03
  IMPLANTE-2-COPY4-1         177         91   960.E-03
  IMPLANTE-2-COPY4-1         178         33   965.E-03
  IMPLANTE-2-COPY4-1         178         61   965.E-03
  IMPLANTE-2-COPY4-1         178         62   965.E-03
  IMPLANTE-2-COPY4-1         178        133   965.E-03
  IMPLANTE-2-COPY4-1         179         44   750.E-03
  IMPLANTE-2-COPY4-1         179         45   750.E-03
  IMPLANTE-2-COPY4-1         179         95   750.E-03
  IMPLANTE-2-COPY4-1         179         99   750.E-03
  IMPLANTE-2-COPY4-1         180         98   434.E-03
  IMPLANTE-2-COPY4-1         180        101   434.E-03
  IMPLANTE-2-COPY4-1         180        137   434.E-03
  IMPLANTE-2-COPY4-1         180        146   434.E-03
  IMPLANTE-2-COPY4-1         181         54   220.E-03
  IMPLANTE-2-COPY4-1         181        102   220.E-03
  IMPLANTE-2-COPY4-1         181        147   220.E-03
  IMPLANTE-2-COPY4-1         181        148   220.E-03
  IMPLANTE-2-COPY4-1         182         63   609.E-03
  IMPLANTE-2-COPY4-1         182         68   609.E-03
  IMPLANTE-2-COPY4-1         182         88   609.E-03
  IMPLANTE-2-COPY4-1         182        122   609.E-03
  IMPLANTE-2-COPY4-1         183         63   544.E-03
  IMPLANTE-2-COPY4-1         183         64   544.E-03
  IMPLANTE-2-COPY4-1         183         67   544.E-03
  IMPLANTE-2-COPY4-1         183         88   544.E-03
  IMPLANTE-2-COPY4-1         184         35   335.E-03
  IMPLANTE-2-COPY4-1         184         59   335.E-03
  IMPLANTE-2-COPY4-1         184        111   335.E-03
  IMPLANTE-2-COPY4-1         184        112   335.E-03
  IMPLANTE-2-COPY4-1         185         39   412.E-03
  IMPLANTE-2-COPY4-1         185         49   412.E-03
  IMPLANTE-2-COPY4-1         185         50   412.E-03
  IMPLANTE-2-COPY4-1         185        124   412.E-03
  IMPLANTE-2-COPY4-1         186         36   221.E-03
  IMPLANTE-2-COPY4-1         186        102   221.E-03
  IMPLANTE-2-COPY4-1         186        143   221.E-03
  IMPLANTE-2-COPY4-1         186        148   221.E-03
  IMPLANTE-2-COPY4-1         187         49   357.E-03
  IMPLANTE-2-COPY4-1         187        107   357.E-03
  IMPLANTE-2-COPY4-1         187        124   357.E-03
  IMPLANTE-2-COPY4-1         187        149   357.E-03
  IMPLANTE-2-COPY4-1         188         52   299.E-03
  IMPLANTE-2-COPY4-1         188        107   299.E-03
  IMPLANTE-2-COPY4-1         188        108   299.E-03
  IMPLANTE-2-COPY4-1         188        149   299.E-03
  IMPLANTE-2-COPY4-1         189         52   249.E-03
  IMPLANTE-2-COPY4-1         189         54   249.E-03
  IMPLANTE-2-COPY4-1         189        108   249.E-03
  IMPLANTE-2-COPY4-1         189        147   249.E-03
  IMPLANTE-2-COPY4-1         190         36   248.E-03
  IMPLANTE-2-COPY4-1         190         93   248.E-03
  IMPLANTE-2-COPY4-1         190        106   248.E-03
  IMPLANTE-2-COPY4-1         190        143   248.E-03
  IMPLANTE-2-COPY4-1         191         35   289.E-03
  IMPLANTE-2-COPY4-1         191         93   289.E-03
  IMPLANTE-2-COPY4-1         191        106   289.E-03
  IMPLANTE-2-COPY4-1         191        112   289.E-03
  IMPLANTE-2-COPY4-1         192         59   385.E-03
  IMPLANTE-2-COPY4-1         192         98   385.E-03
  IMPLANTE-2-COPY4-1         192        111   385.E-03
  IMPLANTE-2-COPY4-1         192        137   385.E-03
  IMPLANTE-2-COPY4-1         193         64   487.E-03
  IMPLANTE-2-COPY4-1         193         67   487.E-03
  IMPLANTE-2-COPY4-1         193        101   487.E-03
  IMPLANTE-2-COPY4-1         193        146   487.E-03
  IMPLANTE-2-COPY4-1         194         23   718.E-03
  IMPLANTE-2-COPY4-1         194         74   718.E-03
  IMPLANTE-2-COPY4-1         194        116   718.E-03
  IMPLANTE-2-COPY4-1         194        130   718.E-03
  IMPLANTE-2-COPY4-1         195         10   995.E-03
  IMPLANTE-2-COPY4-1         195         19   995.E-03
  IMPLANTE-2-COPY4-1         195         71   995.E-03
  IMPLANTE-2-COPY4-1         195        268   995.E-03
  IMPLANTE-2-COPY4-1         196         10   976.E-03
  IMPLANTE-2-COPY4-1         196        118   976.E-03
  IMPLANTE-2-COPY4-1         196        120   976.E-03
  IMPLANTE-2-COPY4-1         196        158   976.E-03
  IMPLANTE-2-COPY4-1         197         12         1.
  IMPLANTE-2-COPY4-1         197         21         1.
  IMPLANTE-2-COPY4-1         197         32         1.
  IMPLANTE-2-COPY4-1         197        157         1.
  IMPLANTE-2-COPY4-1         198         66   941.E-03
  IMPLANTE-2-COPY4-1         198         79   941.E-03
  IMPLANTE-2-COPY4-1         198        103   941.E-03
  IMPLANTE-2-COPY4-1         198        121   941.E-03
  IMPLANTE-2-COPY4-1         199         71         1.
  IMPLANTE-2-COPY4-1         199         73         1.
  IMPLANTE-2-COPY4-1         199        117         1.
  IMPLANTE-2-COPY4-1         199        268         1.
  IMPLANTE-2-COPY4-1         200         18   973.E-03
  IMPLANTE-2-COPY4-1         200         19   973.E-03
  IMPLANTE-2-COPY4-1         200         20   973.E-03
  IMPLANTE-2-COPY4-1         200         71   973.E-03
  IMPLANTE-2-COPY4-1         201         24   786.E-03
  IMPLANTE-2-COPY4-1         201         78   786.E-03
  IMPLANTE-2-COPY4-1         201         80   786.E-03
  IMPLANTE-2-COPY4-1         201        159   786.E-03
  IMPLANTE-2-COPY4-1         202        103   949.E-03
  IMPLANTE-2-COPY4-1         202        123   949.E-03
  IMPLANTE-2-COPY4-1         202        195   949.E-03
  IMPLANTE-2-COPY4-1         202        196   949.E-03
  IMPLANTE-2-COPY4-1         203         38   438.E-03
  IMPLANTE-2-COPY4-1         203         40   438.E-03
  IMPLANTE-2-COPY4-1         203         97   438.E-03
  IMPLANTE-2-COPY4-1         203        166   438.E-03
  IMPLANTE-2-COPY4-1         204         40   449.E-03
  IMPLANTE-2-COPY4-1         204         84   449.E-03
  IMPLANTE-2-COPY4-1         204        166   449.E-03
  IMPLANTE-2-COPY4-1         204        169   449.E-03
  IMPLANTE-2-COPY4-1         205         46   447.E-03
  IMPLANTE-2-COPY4-1         205         47   447.E-03
  IMPLANTE-2-COPY4-1         205        125   447.E-03
  IMPLANTE-2-COPY4-1         205        139   447.E-03
  IMPLANTE-2-COPY4-1         206         46   480.E-03
  IMPLANTE-2-COPY4-1         206        100   480.E-03
  IMPLANTE-2-COPY4-1         206        126   480.E-03
  IMPLANTE-2-COPY4-1         206        139   480.E-03
  IMPLANTE-2-COPY4-1         207        125   342.E-03
  IMPLANTE-2-COPY4-1         207        128   342.E-03
  IMPLANTE-2-COPY4-1         207        201   342.E-03
  IMPLANTE-2-COPY4-1         207        203   342.E-03
  IMPLANTE-2-COPY4-1         208         86   530.E-03
  IMPLANTE-2-COPY4-1         208        100   530.E-03
  IMPLANTE-2-COPY4-1         208        126   530.E-03
  IMPLANTE-2-COPY4-1         208        129   530.E-03
  IMPLANTE-2-COPY4-1         209         23   679.E-03
  IMPLANTE-2-COPY4-1         209         68   679.E-03
  IMPLANTE-2-COPY4-1         209        122   679.E-03
  IMPLANTE-2-COPY4-1         209        130   679.E-03
  IMPLANTE-2-COPY4-1         210         34   838.E-03
  IMPLANTE-2-COPY4-1         210        110   838.E-03
  IMPLANTE-2-COPY4-1         210        131   838.E-03
  IMPLANTE-2-COPY4-1         210        170   838.E-03
  IMPLANTE-2-COPY4-1         211        119   929.E-03
  IMPLANTE-2-COPY4-1         211        132   929.E-03
  IMPLANTE-2-COPY4-1         211        144   929.E-03
  IMPLANTE-2-COPY4-1         211        168   929.E-03
  IMPLANTE-2-COPY4-1         212         77   943.E-03
  IMPLANTE-2-COPY4-1         212         96   943.E-03
  IMPLANTE-2-COPY4-1         212        145   943.E-03
  IMPLANTE-2-COPY4-1         212        167   943.E-03
  IMPLANTE-2-COPY4-1         213         37   787.E-03
  IMPLANTE-2-COPY4-1         213         55   787.E-03
  IMPLANTE-2-COPY4-1         213         92   787.E-03
  IMPLANTE-2-COPY4-1         213        155   787.E-03
  IMPLANTE-2-COPY4-1         214         11   883.E-03
  IMPLANTE-2-COPY4-1         214         62   883.E-03
  IMPLANTE-2-COPY4-1         214         91   883.E-03
  IMPLANTE-2-COPY4-1         214        142   883.E-03
  IMPLANTE-2-COPY4-1         215        127   677.E-03
  IMPLANTE-2-COPY4-1         215        138   677.E-03
  IMPLANTE-2-COPY4-1         215        164   677.E-03
  IMPLANTE-2-COPY4-1         215        181   677.E-03
  IMPLANTE-2-COPY4-1         216        127   723.E-03
  IMPLANTE-2-COPY4-1         216        135   723.E-03
  IMPLANTE-2-COPY4-1         216        163   723.E-03
  IMPLANTE-2-COPY4-1         216        181   723.E-03
  IMPLANTE-2-COPY4-1         217         55   757.E-03
  IMPLANTE-2-COPY4-1         217         92   757.E-03
  IMPLANTE-2-COPY4-1         217        135   757.E-03
  IMPLANTE-2-COPY4-1         217        163   757.E-03
  IMPLANTE-2-COPY4-1         218         34   861.E-03
  IMPLANTE-2-COPY4-1         218         91   861.E-03
  IMPLANTE-2-COPY4-1         218        110   861.E-03
  IMPLANTE-2-COPY4-1         218        142   861.E-03
  IMPLANTE-2-COPY4-1         219         11   902.E-03
  IMPLANTE-2-COPY4-1         219         62   902.E-03
  IMPLANTE-2-COPY4-1         219        133   902.E-03
  IMPLANTE-2-COPY4-1         219        175   902.E-03
  IMPLANTE-2-COPY4-1         220         37   813.E-03
  IMPLANTE-2-COPY4-1         220        131   813.E-03
  IMPLANTE-2-COPY4-1         220        155   813.E-03
  IMPLANTE-2-COPY4-1         220        170   813.E-03
  IMPLANTE-2-COPY4-1         221         96   937.E-03
  IMPLANTE-2-COPY4-1         221        119   937.E-03
  IMPLANTE-2-COPY4-1         221        145   937.E-03
  IMPLANTE-2-COPY4-1         221        168   937.E-03
  IMPLANTE-2-COPY4-1         222        132   917.E-03
  IMPLANTE-2-COPY4-1         222        133   917.E-03
  IMPLANTE-2-COPY4-1         222        144   917.E-03
  IMPLANTE-2-COPY4-1         222        175   917.E-03
  IMPLANTE-2-COPY4-1         223        104   518.E-03
  IMPLANTE-2-COPY4-1         223        137   518.E-03
  IMPLANTE-2-COPY4-1         223        146   518.E-03
  IMPLANTE-2-COPY4-1         223        174   518.E-03
  IMPLANTE-2-COPY4-1         224        108   232.E-03
  IMPLANTE-2-COPY4-1         224        109   232.E-03
  IMPLANTE-2-COPY4-1         224        147   232.E-03
  IMPLANTE-2-COPY4-1         224        152   232.E-03
  IMPLANTE-2-COPY4-1         225        111   469.E-03
  IMPLANTE-2-COPY4-1         225        114   469.E-03
  IMPLANTE-2-COPY4-1         225        137   469.E-03
  IMPLANTE-2-COPY4-1         225        174   469.E-03
  IMPLANTE-2-COPY4-1         226         42   371.E-03
  IMPLANTE-2-COPY4-1         226         50   371.E-03
  IMPLANTE-2-COPY4-1         226        105   371.E-03
  IMPLANTE-2-COPY4-1         226        124   371.E-03
  IMPLANTE-2-COPY4-1         227        111   419.E-03
  IMPLANTE-2-COPY4-1         227        112   419.E-03
  IMPLANTE-2-COPY4-1         227        114   419.E-03
  IMPLANTE-2-COPY4-1         227        141   419.E-03
  IMPLANTE-2-COPY4-1         228         63   613.E-03
  IMPLANTE-2-COPY4-1         228         64   613.E-03
  IMPLANTE-2-COPY4-1         228        188   613.E-03
  IMPLANTE-2-COPY4-1         228        190   613.E-03
  IMPLANTE-2-COPY4-1         229        108   266.E-03
  IMPLANTE-2-COPY4-1         229        109   266.E-03
  IMPLANTE-2-COPY4-1         229        149   266.E-03
  IMPLANTE-2-COPY4-1         229        180   266.E-03
  IMPLANTE-2-COPY4-1         230        106   366.E-03
  IMPLANTE-2-COPY4-1         230        112   366.E-03
  IMPLANTE-2-COPY4-1         230        141   366.E-03
  IMPLANTE-2-COPY4-1         230        154   366.E-03
  IMPLANTE-2-COPY4-1         231        147   233.E-03
  IMPLANTE-2-COPY4-1         231        148   233.E-03
  IMPLANTE-2-COPY4-1         231        152   233.E-03
  IMPLANTE-2-COPY4-1         231        171   233.E-03
  IMPLANTE-2-COPY4-1         232        106   314.E-03
  IMPLANTE-2-COPY4-1         232        143   314.E-03
  IMPLANTE-2-COPY4-1         232        154   314.E-03
  IMPLANTE-2-COPY4-1         232        172   314.E-03
  IMPLANTE-2-COPY4-1         233        143   266.E-03
  IMPLANTE-2-COPY4-1         233        148   266.E-03
  IMPLANTE-2-COPY4-1         233        171   266.E-03
  IMPLANTE-2-COPY4-1         233        172   266.E-03
  IMPLANTE-2-COPY4-1         234         64   565.E-03
  IMPLANTE-2-COPY4-1         234        104   565.E-03
  IMPLANTE-2-COPY4-1         234        146   565.E-03
  IMPLANTE-2-COPY4-1         234        188   565.E-03
  IMPLANTE-2-COPY4-1         235         42   317.E-03
  IMPLANTE-2-COPY4-1         235        124   317.E-03
  IMPLANTE-2-COPY4-1         235        149   317.E-03
  IMPLANTE-2-COPY4-1         235        180   317.E-03
  IMPLANTE-2-COPY4-1         236         77   952.E-03
  IMPLANTE-2-COPY4-1         236        118   952.E-03
  IMPLANTE-2-COPY4-1         236        158   952.E-03
  IMPLANTE-2-COPY4-1         236        167   952.E-03
  IMPLANTE-2-COPY4-1         237         24   732.E-03
  IMPLANTE-2-COPY4-1         237         80   732.E-03
  IMPLANTE-2-COPY4-1         237        116   732.E-03
  IMPLANTE-2-COPY4-1         237        130   732.E-03
  IMPLANTE-2-COPY4-1         238         94         1.
  IMPLANTE-2-COPY4-1         238        117         1.
  IMPLANTE-2-COPY4-1         238        134         1.
  IMPLANTE-2-COPY4-1         238        157         1.
  IMPLANTE-2-COPY4-1         239         24   699.E-03
  IMPLANTE-2-COPY4-1         239        122   699.E-03
  IMPLANTE-2-COPY4-1         239        130   699.E-03
  IMPLANTE-2-COPY4-1         239        204   699.E-03
  IMPLANTE-2-COPY4-1         240         78   845.E-03
  IMPLANTE-2-COPY4-1         240        121   845.E-03
  IMPLANTE-2-COPY4-1         240        159   845.E-03
  IMPLANTE-2-COPY4-1         240        160   845.E-03
  IMPLANTE-2-COPY4-1         241         32         1.
  IMPLANTE-2-COPY4-1         241        134         1.
  IMPLANTE-2-COPY4-1         241        157         1.
  IMPLANTE-2-COPY4-1         241        197         1.
  IMPLANTE-2-COPY4-1         242        103   901.E-03
  IMPLANTE-2-COPY4-1         242        121   901.E-03
  IMPLANTE-2-COPY4-1         242        160   901.E-03
  IMPLANTE-2-COPY4-1         242        195   901.E-03
  IMPLANTE-2-COPY4-1         243         32   986.E-03
  IMPLANTE-2-COPY4-1         243        123   986.E-03
  IMPLANTE-2-COPY4-1         243        196   986.E-03
  IMPLANTE-2-COPY4-1         243        197   986.E-03
  IMPLANTE-2-COPY4-1         244         43   400.E-03
  IMPLANTE-2-COPY4-1         244        126   400.E-03
  IMPLANTE-2-COPY4-1         244        139   400.E-03
  IMPLANTE-2-COPY4-1         244        202   400.E-03
  IMPLANTE-2-COPY4-1         245         86   478.E-03
  IMPLANTE-2-COPY4-1         245        126   478.E-03
  IMPLANTE-2-COPY4-1         245        164   478.E-03
  IMPLANTE-2-COPY4-1         245        202   478.E-03
  IMPLANTE-2-COPY4-1         246         43   356.E-03
  IMPLANTE-2-COPY4-1         246        125   356.E-03
  IMPLANTE-2-COPY4-1         246        139   356.E-03
  IMPLANTE-2-COPY4-1         246        201   356.E-03
  IMPLANTE-2-COPY4-1         247         97   351.E-03
  IMPLANTE-2-COPY4-1         247        128   351.E-03
  IMPLANTE-2-COPY4-1         247        179   351.E-03
  IMPLANTE-2-COPY4-1         247        203   351.E-03
  IMPLANTE-2-COPY4-1         248         63   660.E-03
  IMPLANTE-2-COPY4-1         248        122   660.E-03
  IMPLANTE-2-COPY4-1         248        190   660.E-03
  IMPLANTE-2-COPY4-1         248        204   660.E-03
  IMPLANTE-2-COPY4-1         249         94   998.E-03
  IMPLANTE-2-COPY4-1         249        120   998.E-03
  IMPLANTE-2-COPY4-1         249        158   998.E-03
  IMPLANTE-2-COPY4-1         249        194   998.E-03
  IMPLANTE-2-COPY4-1         250         86   614.E-03
  IMPLANTE-2-COPY4-1         250         95   614.E-03
  IMPLANTE-2-COPY4-1         250        138   614.E-03
  IMPLANTE-2-COPY4-1         250        164   614.E-03
  IMPLANTE-2-COPY4-1         251         50   414.E-03
  IMPLANTE-2-COPY4-1         251        105   414.E-03
  IMPLANTE-2-COPY4-1         251        166   414.E-03
  IMPLANTE-2-COPY4-1         251        169   414.E-03
  IMPLANTE-2-COPY4-1         252        110   778.E-03
  IMPLANTE-2-COPY4-1         252        142   778.E-03
  IMPLANTE-2-COPY4-1         252        150   778.E-03
  IMPLANTE-2-COPY4-1         252        177   778.E-03
  IMPLANTE-2-COPY4-1         253        110   740.E-03
  IMPLANTE-2-COPY4-1         253        170   740.E-03
  IMPLANTE-2-COPY4-1         253        177   740.E-03
  IMPLANTE-2-COPY4-1         253        205   740.E-03
  IMPLANTE-2-COPY4-1         254        136   326.E-03
  IMPLANTE-2-COPY4-1         254        140   326.E-03
  IMPLANTE-2-COPY4-1         254        171   326.E-03
  IMPLANTE-2-COPY4-1         254        172   326.E-03
  IMPLANTE-2-COPY4-1         255        113   443.E-03
  IMPLANTE-2-COPY4-1         255        141   443.E-03
  IMPLANTE-2-COPY4-1         255        154   443.E-03
  IMPLANTE-2-COPY4-1         255        206   443.E-03
  IMPLANTE-2-COPY4-1         256        140   385.E-03
  IMPLANTE-2-COPY4-1         256        154   385.E-03
  IMPLANTE-2-COPY4-1         256        172   385.E-03
  IMPLANTE-2-COPY4-1         256        206   385.E-03
  IMPLANTE-2-COPY4-1         257        113   497.E-03
  IMPLANTE-2-COPY4-1         257        114   497.E-03
  IMPLANTE-2-COPY4-1         257        115   497.E-03
  IMPLANTE-2-COPY4-1         257        141   497.E-03
  IMPLANTE-2-COPY4-1         258        114   547.E-03
  IMPLANTE-2-COPY4-1         258        115   547.E-03
  IMPLANTE-2-COPY4-1         258        174   547.E-03
  IMPLANTE-2-COPY4-1         258        216   547.E-03
  IMPLANTE-2-COPY4-1         259        136   270.E-03
  IMPLANTE-2-COPY4-1         259        152   270.E-03
  IMPLANTE-2-COPY4-1         259        171   270.E-03
  IMPLANTE-2-COPY4-1         259        211   270.E-03
  IMPLANTE-2-COPY4-1         259        220   270.E-03
  IMPLANTE-2-COPY4-1         260        155   700.E-03
  IMPLANTE-2-COPY4-1         260        170   700.E-03
  IMPLANTE-2-COPY4-1         260        205   700.E-03
  IMPLANTE-2-COPY4-1         260        209   700.E-03
  IMPLANTE-2-COPY4-1         261         11   813.E-03
  IMPLANTE-2-COPY4-1         261        142   813.E-03
  IMPLANTE-2-COPY4-1         261        150   813.E-03
  IMPLANTE-2-COPY4-1         261        186   813.E-03
  IMPLANTE-2-COPY4-1         262        109   231.E-03
  IMPLANTE-2-COPY4-1         262        152   231.E-03
  IMPLANTE-2-COPY4-1         262        178   231.E-03
  IMPLANTE-2-COPY4-1         262        211   231.E-03
  IMPLANTE-2-COPY4-1         263         42   274.E-03
  IMPLANTE-2-COPY4-1         263        165   274.E-03
  IMPLANTE-2-COPY4-1         263        180   274.E-03
  IMPLANTE-2-COPY4-1         263        212   274.E-03
  IMPLANTE-2-COPY4-1         264        109   239.E-03
  IMPLANTE-2-COPY4-1         264        178   239.E-03
  IMPLANTE-2-COPY4-1         264        180   239.E-03
  IMPLANTE-2-COPY4-1         264        212   239.E-03
  IMPLANTE-2-COPY4-1         265         90   555.E-03
  IMPLANTE-2-COPY4-1         265        163   555.E-03
  IMPLANTE-2-COPY4-1         265        181   555.E-03
  IMPLANTE-2-COPY4-1         265        207   555.E-03
  IMPLANTE-2-COPY4-1         266         55   655.E-03
  IMPLANTE-2-COPY4-1         266         58   655.E-03
  IMPLANTE-2-COPY4-1         266        155   655.E-03
  IMPLANTE-2-COPY4-1         266        209   655.E-03
  IMPLANTE-2-COPY4-1         267         55   606.E-03
  IMPLANTE-2-COPY4-1         267         58   606.E-03
  IMPLANTE-2-COPY4-1         267        163   606.E-03
  IMPLANTE-2-COPY4-1         267        207   606.E-03
  IMPLANTE-2-COPY4-1         268        144   873.E-03
  IMPLANTE-2-COPY4-1         268        156   873.E-03
  IMPLANTE-2-COPY4-1         268        175   873.E-03
  IMPLANTE-2-COPY4-1         268        187   873.E-03
  IMPLANTE-2-COPY4-1         269        144   902.E-03
  IMPLANTE-2-COPY4-1         269        156   902.E-03
  IMPLANTE-2-COPY4-1         269        168   902.E-03
  IMPLANTE-2-COPY4-1         269        199   902.E-03
  IMPLANTE-2-COPY4-1         270         11   844.E-03
  IMPLANTE-2-COPY4-1         270        175   844.E-03
  IMPLANTE-2-COPY4-1         270        186   844.E-03
  IMPLANTE-2-COPY4-1         270        187   844.E-03
  IMPLANTE-2-COPY4-1         271        104   593.E-03
  IMPLANTE-2-COPY4-1         271        174   593.E-03
  IMPLANTE-2-COPY4-1         271        185   593.E-03
  IMPLANTE-2-COPY4-1         271        216   593.E-03
  IMPLANTE-2-COPY4-1         272        104   637.E-03
  IMPLANTE-2-COPY4-1         272        185   637.E-03
  IMPLANTE-2-COPY4-1         272        188   637.E-03
  IMPLANTE-2-COPY4-1         272        214   637.E-03
  IMPLANTE-2-COPY4-1         273        188   679.E-03
  IMPLANTE-2-COPY4-1         273        190   679.E-03
  IMPLANTE-2-COPY4-1         273        214   679.E-03
  IMPLANTE-2-COPY4-1         273        215   679.E-03
  IMPLANTE-2-COPY4-1         274        145   926.E-03
  IMPLANTE-2-COPY4-1         274        168   926.E-03
  IMPLANTE-2-COPY4-1         274        192   926.E-03
  IMPLANTE-2-COPY4-1         274        199   926.E-03
  IMPLANTE-2-COPY4-1         275        145   948.E-03
  IMPLANTE-2-COPY4-1         275        167   948.E-03
  IMPLANTE-2-COPY4-1         275        192   948.E-03
  IMPLANTE-2-COPY4-1         275        230   948.E-03
  IMPLANTE-2-COPY4-1         276        158   973.E-03
  IMPLANTE-2-COPY4-1         276        167   973.E-03
  IMPLANTE-2-COPY4-1         276        194   973.E-03
  IMPLANTE-2-COPY4-1         276        230   973.E-03
  IMPLANTE-2-COPY4-1         277         97   377.E-03
  IMPLANTE-2-COPY4-1         277        105   377.E-03
  IMPLANTE-2-COPY4-1         277        166   377.E-03
  IMPLANTE-2-COPY4-1         277        179   377.E-03
  IMPLANTE-2-COPY4-1         278        160   865.E-03
  IMPLANTE-2-COPY4-1         278        191   865.E-03
  IMPLANTE-2-COPY4-1         278        195   865.E-03
  IMPLANTE-2-COPY4-1         278        232   865.E-03
  IMPLANTE-2-COPY4-1         279        134   985.E-03
  IMPLANTE-2-COPY4-1         279        197   985.E-03
  IMPLANTE-2-COPY4-1         279        228   985.E-03
  IMPLANTE-2-COPY4-1         279        229   985.E-03
  IMPLANTE-2-COPY4-1         280        159   808.E-03
  IMPLANTE-2-COPY4-1         280        160   808.E-03
  IMPLANTE-2-COPY4-1         280        191   808.E-03
  IMPLANTE-2-COPY4-1         280        198   808.E-03
  IMPLANTE-2-COPY4-1         281        161   956.E-03
  IMPLANTE-2-COPY4-1         281        196   956.E-03
  IMPLANTE-2-COPY4-1         281        197   956.E-03
  IMPLANTE-2-COPY4-1         281        229   956.E-03
  IMPLANTE-2-COPY4-1         282        161   916.E-03
  IMPLANTE-2-COPY4-1         282        195   916.E-03
  IMPLANTE-2-COPY4-1         282        196   916.E-03
  IMPLANTE-2-COPY4-1         282        232   916.E-03
  IMPLANTE-2-COPY4-1         283        165   289.E-03
  IMPLANTE-2-COPY4-1         283        179   289.E-03
  IMPLANTE-2-COPY4-1         283        203   289.E-03
  IMPLANTE-2-COPY4-1         283        231   289.E-03
  IMPLANTE-2-COPY4-1         284         43   313.E-03
  IMPLANTE-2-COPY4-1         284        182   313.E-03
  IMPLANTE-2-COPY4-1         284        184   313.E-03
  IMPLANTE-2-COPY4-1         284        201   313.E-03
  IMPLANTE-2-COPY4-1         285         43   386.E-03
  IMPLANTE-2-COPY4-1         285         90   386.E-03
  IMPLANTE-2-COPY4-1         285        184   386.E-03
  IMPLANTE-2-COPY4-1         285        202   386.E-03
  IMPLANTE-2-COPY4-1         286        182   281.E-03
  IMPLANTE-2-COPY4-1         286        201   281.E-03
  IMPLANTE-2-COPY4-1         286        203   281.E-03
  IMPLANTE-2-COPY4-1         286        231   281.E-03
  IMPLANTE-2-COPY4-1         287        190   717.E-03
  IMPLANTE-2-COPY4-1         287        198   717.E-03
  IMPLANTE-2-COPY4-1         287        204   717.E-03
  IMPLANTE-2-COPY4-1         287        215   717.E-03
  IMPLANTE-2-COPY4-1         288         90   504.E-03
  IMPLANTE-2-COPY4-1         288        164   504.E-03
  IMPLANTE-2-COPY4-1         288        181   504.E-03
  IMPLANTE-2-COPY4-1         288        202   504.E-03
  IMPLANTE-2-COPY4-1         289         42   323.E-03
  IMPLANTE-2-COPY4-1         289        105   323.E-03
  IMPLANTE-2-COPY4-1         289        165   323.E-03
  IMPLANTE-2-COPY4-1         289        179   323.E-03
  IMPLANTE-2-COPY4-1         290        177   653.E-03
  IMPLANTE-2-COPY4-1         290        205   653.E-03
  IMPLANTE-2-COPY4-1         290        223   653.E-03
  IMPLANTE-2-COPY4-1         290        237   653.E-03
  IMPLANTE-2-COPY4-1         291        140   461.E-03
  IMPLANTE-2-COPY4-1         291        153   461.E-03
  IMPLANTE-2-COPY4-1         291        173   461.E-03
  IMPLANTE-2-COPY4-1         291        206   461.E-03
  IMPLANTE-2-COPY4-1         292        136   404.E-03
  IMPLANTE-2-COPY4-1         292        140   404.E-03
  IMPLANTE-2-COPY4-1         292        173   404.E-03
  IMPLANTE-2-COPY4-1         292        221   404.E-03
  IMPLANTE-2-COPY4-1         293         58   475.E-03
  IMPLANTE-2-COPY4-1         293        183   475.E-03
  IMPLANTE-2-COPY4-1         293        207   475.E-03
  IMPLANTE-2-COPY4-1         293        208   475.E-03
  IMPLANTE-2-COPY4-1         294        178   249.E-03
  IMPLANTE-2-COPY4-1         294        210   249.E-03
  IMPLANTE-2-COPY4-1         294        211   249.E-03
  IMPLANTE-2-COPY4-1         294        238   249.E-03
  IMPLANTE-2-COPY4-1         295        178   235.E-03
  IMPLANTE-2-COPY4-1         295        210   235.E-03
  IMPLANTE-2-COPY4-1         295        212   235.E-03
  IMPLANTE-2-COPY4-1         295        235   235.E-03
  IMPLANTE-2-COPY4-1         296        156   827.E-03
  IMPLANTE-2-COPY4-1         296        187   827.E-03
  IMPLANTE-2-COPY4-1         296        189   827.E-03
  IMPLANTE-2-COPY4-1         296        227   827.E-03
  IMPLANTE-2-COPY4-1         296        239   827.E-03
  IMPLANTE-2-COPY4-1         297        186   787.E-03
  IMPLANTE-2-COPY4-1         297        187   787.E-03
  IMPLANTE-2-COPY4-1         297        213   787.E-03
  IMPLANTE-2-COPY4-1         297        239   787.E-03
  IMPLANTE-2-COPY4-1         298        185   702.E-03
  IMPLANTE-2-COPY4-1         298        214   702.E-03
  IMPLANTE-2-COPY4-1         298        249   702.E-03
  IMPLANTE-2-COPY4-1         298        250   702.E-03
  IMPLANTE-2-COPY4-1         299        113   517.E-03
  IMPLANTE-2-COPY4-1         299        153   517.E-03
  IMPLANTE-2-COPY4-1         299        206   517.E-03
  IMPLANTE-2-COPY4-1         299        217   517.E-03
  IMPLANTE-2-COPY4-1         300        113   568.E-03
  IMPLANTE-2-COPY4-1         300        115   568.E-03
  IMPLANTE-2-COPY4-1         300        217   568.E-03
  IMPLANTE-2-COPY4-1         300        241   568.E-03
  IMPLANTE-2-COPY4-1         301         58   539.E-03
  IMPLANTE-2-COPY4-1         301        208   539.E-03
  IMPLANTE-2-COPY4-1         301        209   539.E-03
  IMPLANTE-2-COPY4-1         301        240   539.E-03
  IMPLANTE-2-COPY4-1         302        205   600.E-03
  IMPLANTE-2-COPY4-1         302        209   600.E-03
  IMPLANTE-2-COPY4-1         302        237   600.E-03
  IMPLANTE-2-COPY4-1         302        240   600.E-03
  IMPLANTE-2-COPY4-1         303        136   356.E-03
  IMPLANTE-2-COPY4-1         303        176   356.E-03
  IMPLANTE-2-COPY4-1         303        220   356.E-03
  IMPLANTE-2-COPY4-1         303        221   356.E-03
  IMPLANTE-2-COPY4-1         304        211   280.E-03
  IMPLANTE-2-COPY4-1         304        220   280.E-03
  IMPLANTE-2-COPY4-1         304        238   280.E-03
  IMPLANTE-2-COPY4-1         305        150   746.E-03
  IMPLANTE-2-COPY4-1         305        186   746.E-03
  IMPLANTE-2-COPY4-1         305        213   746.E-03
  IMPLANTE-2-COPY4-1         305        219   746.E-03
  IMPLANTE-2-COPY4-1         306        150   702.E-03
  IMPLANTE-2-COPY4-1         306        177   702.E-03
  IMPLANTE-2-COPY4-1         306        219   702.E-03
  IMPLANTE-2-COPY4-1         306        223   702.E-03
  IMPLANTE-2-COPY4-1         307        115   616.E-03
  IMPLANTE-2-COPY4-1         307        216   616.E-03
  IMPLANTE-2-COPY4-1         307        224   616.E-03
  IMPLANTE-2-COPY4-1         307        241   616.E-03
  IMPLANTE-2-COPY4-1         308        185   660.E-03
  IMPLANTE-2-COPY4-1         308        216   660.E-03
  IMPLANTE-2-COPY4-1         308        224   660.E-03
  IMPLANTE-2-COPY4-1         308        249   660.E-03
  IMPLANTE-2-COPY4-1         309        156   877.E-03
  IMPLANTE-2-COPY4-1         309        189   877.E-03
  IMPLANTE-2-COPY4-1         309        199   877.E-03
  IMPLANTE-2-COPY4-1         309        233   877.E-03
  IMPLANTE-2-COPY4-1         310        192   909.E-03
  IMPLANTE-2-COPY4-1         310        199   909.E-03
  IMPLANTE-2-COPY4-1         310        233   909.E-03
  IMPLANTE-2-COPY4-1         310        254   909.E-03
  IMPLANTE-2-COPY4-1         311         86   596.E-03
  IMPLANTE-2-COPY4-1         311         95   596.E-03
  IMPLANTE-2-COPY4-1         311         99   596.E-03
  IMPLANTE-2-COPY4-1         311        129   596.E-03
  IMPLANTE-2-COPY4-1         312        162   940.E-03
  IMPLANTE-2-COPY4-1         312        192   940.E-03
  IMPLANTE-2-COPY4-1         312        230   940.E-03
  IMPLANTE-2-COPY4-1         312        254   940.E-03
  IMPLANTE-2-COPY4-1         313        162   971.E-03
  IMPLANTE-2-COPY4-1         313        194   971.E-03
  IMPLANTE-2-COPY4-1         313        228   971.E-03
  IMPLANTE-2-COPY4-1         313        230   971.E-03
  IMPLANTE-2-COPY4-1         314         39   456.E-03
  IMPLANTE-2-COPY4-1         314         50   456.E-03
  IMPLANTE-2-COPY4-1         314         51   456.E-03
  IMPLANTE-2-COPY4-1         314        169   456.E-03
  IMPLANTE-2-COPY4-1         315         94         1.
  IMPLANTE-2-COPY4-1         315        134         1.
  IMPLANTE-2-COPY4-1         315        194         1.
  IMPLANTE-2-COPY4-1         315        228         1.
  IMPLANTE-2-COPY4-1         316        165   246.E-03
  IMPLANTE-2-COPY4-1         316        212   246.E-03
  IMPLANTE-2-COPY4-1         316        231   246.E-03
  IMPLANTE-2-COPY4-1         316        235   246.E-03
  IMPLANTE-2-COPY4-1         317        161   881.E-03
  IMPLANTE-2-COPY4-1         317        232   881.E-03
  IMPLANTE-2-COPY4-1         317        255   881.E-03
  IMPLANTE-2-COPY4-1         317        265   881.E-03
  IMPLANTE-2-COPY4-1         318        161   922.E-03
  IMPLANTE-2-COPY4-1         318        229   922.E-03
  IMPLANTE-2-COPY4-1         318        255   922.E-03
  IMPLANTE-2-COPY4-1         318        256   922.E-03
  IMPLANTE-2-COPY4-1         319        162   953.E-03
  IMPLANTE-2-COPY4-1         319        228   953.E-03
  IMPLANTE-2-COPY4-1         319        229   953.E-03
  IMPLANTE-2-COPY4-1         319        256   953.E-03
  IMPLANTE-2-COPY4-1         320        191   775.E-03
  IMPLANTE-2-COPY4-1         320        198   775.E-03
  IMPLANTE-2-COPY4-1         320        200   775.E-03
  IMPLANTE-2-COPY4-1         320        215   775.E-03
  IMPLANTE-2-COPY4-1         321         24   750.E-03
  IMPLANTE-2-COPY4-1         321        159   750.E-03
  IMPLANTE-2-COPY4-1         321        198   750.E-03
  IMPLANTE-2-COPY4-1         321        204   750.E-03
  IMPLANTE-2-COPY4-1         322        182   321.E-03
  IMPLANTE-2-COPY4-1         322        183   321.E-03
  IMPLANTE-2-COPY4-1         322        184   321.E-03
  IMPLANTE-2-COPY4-1         322        257   321.E-03
  IMPLANTE-2-COPY4-1         323        182   260.E-03
  IMPLANTE-2-COPY4-1         323        231   260.E-03
  IMPLANTE-2-COPY4-1         323        235   260.E-03
  IMPLANTE-2-COPY4-1         323        257   260.E-03
  IMPLANTE-2-COPY4-1         324        200   740.E-03
  IMPLANTE-2-COPY4-1         324        214   740.E-03
  IMPLANTE-2-COPY4-1         324        215   740.E-03
  IMPLANTE-2-COPY4-1         324        250   740.E-03
  IMPLANTE-2-COPY4-1         325        173   483.E-03
  IMPLANTE-2-COPY4-1         325        221   483.E-03
  IMPLANTE-2-COPY4-1         325        244   483.E-03
  IMPLANTE-2-COPY4-1         325        245   483.E-03
  IMPLANTE-2-COPY4-1         326        183   370.E-03
  IMPLANTE-2-COPY4-1         326        208   370.E-03
  IMPLANTE-2-COPY4-1         326        218   370.E-03
  IMPLANTE-2-COPY4-1         326        257   370.E-03
  IMPLANTE-2-COPY4-1         327        210   288.E-03
  IMPLANTE-2-COPY4-1         327        218   288.E-03
  IMPLANTE-2-COPY4-1         327        235   288.E-03
  IMPLANTE-2-COPY4-1         327        236   288.E-03
  IMPLANTE-2-COPY4-1         327        257   288.E-03
  IMPLANTE-2-COPY4-1         328        227   758.E-03
  IMPLANTE-2-COPY4-1         328        239   758.E-03
  IMPLANTE-2-COPY4-1         328        252   758.E-03
  IMPLANTE-2-COPY4-1         328        261   758.E-03
  IMPLANTE-2-COPY4-1         329        153   537.E-03
  IMPLANTE-2-COPY4-1         329        173   537.E-03
  IMPLANTE-2-COPY4-1         329        245   537.E-03
  IMPLANTE-2-COPY4-1         329        248   537.E-03
  IMPLANTE-2-COPY4-1         330        176   432.E-03
  IMPLANTE-2-COPY4-1         330        221   432.E-03
  IMPLANTE-2-COPY4-1         330        244   432.E-03
  IMPLANTE-2-COPY4-1         330        246   432.E-03
  IMPLANTE-2-COPY4-1         331        153   587.E-03
  IMPLANTE-2-COPY4-1         331        217   587.E-03
  IMPLANTE-2-COPY4-1         331        248   587.E-03
  IMPLANTE-2-COPY4-1         331        251   587.E-03
  IMPLANTE-2-COPY4-1         332        208   445.E-03
  IMPLANTE-2-COPY4-1         332        218   445.E-03
  IMPLANTE-2-COPY4-1         332        240   445.E-03
  IMPLANTE-2-COPY4-1         332        259   445.E-03
  IMPLANTE-2-COPY4-1         333        213   723.E-03
  IMPLANTE-2-COPY4-1         333        239   723.E-03
  IMPLANTE-2-COPY4-1         333        242   723.E-03
  IMPLANTE-2-COPY4-1         333        261   723.E-03
  IMPLANTE-2-COPY4-1         334        237   516.E-03
  IMPLANTE-2-COPY4-1         334        240   516.E-03
  IMPLANTE-2-COPY4-1         334        259   516.E-03
  IMPLANTE-2-COPY4-1         334        260   516.E-03
  IMPLANTE-2-COPY4-1         335        210   296.E-03
  IMPLANTE-2-COPY4-1         335        236   296.E-03
  IMPLANTE-2-COPY4-1         335        238   296.E-03
  IMPLANTE-2-COPY4-1         335        258   296.E-03
  IMPLANTE-2-COPY4-1         336        223   576.E-03
  IMPLANTE-2-COPY4-1         336        237   576.E-03
  IMPLANTE-2-COPY4-1         336        247   576.E-03
  IMPLANTE-2-COPY4-1         336        260   576.E-03
  IMPLANTE-2-COPY4-1         337        213   679.E-03
  IMPLANTE-2-COPY4-1         337        219   679.E-03
  IMPLANTE-2-COPY4-1         337        222   679.E-03
  IMPLANTE-2-COPY4-1         337        242   679.E-03
  IMPLANTE-2-COPY4-1         338        176   327.E-03
  IMPLANTE-2-COPY4-1         338        220   327.E-03
  IMPLANTE-2-COPY4-1         338        238   327.E-03
  IMPLANTE-2-COPY4-1         338        258   327.E-03
  IMPLANTE-2-COPY4-1         339        219   630.E-03
  IMPLANTE-2-COPY4-1         339        222   630.E-03
  IMPLANTE-2-COPY4-1         339        223   630.E-03
  IMPLANTE-2-COPY4-1         339        247   630.E-03
  IMPLANTE-2-COPY4-1         340        217   634.E-03
  IMPLANTE-2-COPY4-1         340        225   634.E-03
  IMPLANTE-2-COPY4-1         340        241   634.E-03
  IMPLANTE-2-COPY4-1         340        251   634.E-03
  IMPLANTE-2-COPY4-1         341        193   720.E-03
  IMPLANTE-2-COPY4-1         341        224   720.E-03
  IMPLANTE-2-COPY4-1         341        249   720.E-03
  IMPLANTE-2-COPY4-1         341        262   720.E-03
  IMPLANTE-2-COPY4-1         342        224   678.E-03
  IMPLANTE-2-COPY4-1         342        225   678.E-03
  IMPLANTE-2-COPY4-1         342        241   678.E-03
  IMPLANTE-2-COPY4-1         342        262   678.E-03
  IMPLANTE-2-COPY4-1         343        189   820.E-03
  IMPLANTE-2-COPY4-1         343        227   820.E-03
  IMPLANTE-2-COPY4-1         343        266   820.E-03
  IMPLANTE-2-COPY4-1         344        189   852.E-03
  IMPLANTE-2-COPY4-1         344        233   852.E-03
  IMPLANTE-2-COPY4-1         344        253   852.E-03
  IMPLANTE-2-COPY4-1         344        266   852.E-03
  IMPLANTE-2-COPY4-1         345        233   886.E-03
  IMPLANTE-2-COPY4-1         345        253   886.E-03
  IMPLANTE-2-COPY4-1         345        254   886.E-03
  IMPLANTE-2-COPY4-1         345        264   886.E-03
  IMPLANTE-2-COPY4-1         346        234   888.E-03
  IMPLANTE-2-COPY4-1         346        255   888.E-03
  IMPLANTE-2-COPY4-1         346        256   888.E-03
  IMPLANTE-2-COPY4-1         346        264   888.E-03
  IMPLANTE-2-COPY4-1         347         90   420.E-03
  IMPLANTE-2-COPY4-1         347        183   420.E-03
  IMPLANTE-2-COPY4-1         347        184   420.E-03
  IMPLANTE-2-COPY4-1         347        207   420.E-03
  IMPLANTE-2-COPY4-1         348        151   759.E-03
  IMPLANTE-2-COPY4-1         348        193   759.E-03
  IMPLANTE-2-COPY4-1         348        249   759.E-03
  IMPLANTE-2-COPY4-1         348        250   759.E-03
  IMPLANTE-2-COPY4-1         349        222   557.E-03
  IMPLANTE-2-COPY4-1         349        244   557.E-03
  IMPLANTE-2-COPY4-1         349        245   557.E-03
  IMPLANTE-2-COPY4-1         349        247   557.E-03
  IMPLANTE-2-COPY4-1         350        222   609.E-03
  IMPLANTE-2-COPY4-1         350        242   609.E-03
  IMPLANTE-2-COPY4-1         350        245   609.E-03
  IMPLANTE-2-COPY4-1         350        248   609.E-03
  IMPLANTE-2-COPY4-1         351        244   504.E-03
  IMPLANTE-2-COPY4-1         351        246   504.E-03
  IMPLANTE-2-COPY4-1         351        247   504.E-03
  IMPLANTE-2-COPY4-1         351        260   504.E-03
  IMPLANTE-2-COPY4-1         352        218   380.E-03
  IMPLANTE-2-COPY4-1         352        236   380.E-03
  IMPLANTE-2-COPY4-1         352        243   380.E-03
  IMPLANTE-2-COPY4-1         352        259   380.E-03
  IMPLANTE-2-COPY4-1         353        243   448.E-03
  IMPLANTE-2-COPY4-1         353        246   448.E-03
  IMPLANTE-2-COPY4-1         353        259   448.E-03
  IMPLANTE-2-COPY4-1         353        260   448.E-03
  IMPLANTE-2-COPY4-1         354        242   656.E-03
  IMPLANTE-2-COPY4-1         354        248   656.E-03
  IMPLANTE-2-COPY4-1         354        251   656.E-03
  IMPLANTE-2-COPY4-1         354        261   656.E-03
  IMPLANTE-2-COPY4-1         355        225   697.E-03
  IMPLANTE-2-COPY4-1         355        251   697.E-03
  IMPLANTE-2-COPY4-1         355        252   697.E-03
  IMPLANTE-2-COPY4-1         355        261   697.E-03
  IMPLANTE-2-COPY4-1         356        225   734.E-03
  IMPLANTE-2-COPY4-1         356        226   734.E-03
  IMPLANTE-2-COPY4-1         356        252   734.E-03
  IMPLANTE-2-COPY4-1         356        262   734.E-03
  IMPLANTE-2-COPY4-1         357        162   920.E-03
  IMPLANTE-2-COPY4-1         357        254   920.E-03
  IMPLANTE-2-COPY4-1         357        256   920.E-03
  IMPLANTE-2-COPY4-1         357        264   920.E-03
  IMPLANTE-2-COPY4-1         358        234   853.E-03
  IMPLANTE-2-COPY4-1         358        253   853.E-03
  IMPLANTE-2-COPY4-1         358        263   853.E-03
  IMPLANTE-2-COPY4-1         358        264   853.E-03
  IMPLANTE-2-COPY4-1         359        151   796.E-03
  IMPLANTE-2-COPY4-1         359        200   796.E-03
  IMPLANTE-2-COPY4-1         359        250   796.E-03
  IMPLANTE-2-COPY4-1         359        265   796.E-03
  IMPLANTE-2-COPY4-1         360        151   810.E-03
  IMPLANTE-2-COPY4-1         360        193   810.E-03
  IMPLANTE-2-COPY4-1         360        234   810.E-03
  IMPLANTE-2-COPY4-1         360        263   810.E-03
  IMPLANTE-2-COPY4-1         361        226   817.E-03
  IMPLANTE-2-COPY4-1         361        253   817.E-03
  IMPLANTE-2-COPY4-1         361        263   817.E-03
  IMPLANTE-2-COPY4-1         361        266   817.E-03
  IMPLANTE-2-COPY4-1         362        226   783.E-03
  IMPLANTE-2-COPY4-1         362        227   783.E-03
  IMPLANTE-2-COPY4-1         362        252   783.E-03
  IMPLANTE-2-COPY4-1         362        266   783.E-03
  IMPLANTE-2-COPY4-1         363          6   490.E-03
  IMPLANTE-2-COPY4-1         363         75   490.E-03
  IMPLANTE-2-COPY4-1         363        267   490.E-03
  IMPLANTE-2-COPY4-1         364          1   810.E-03
  IMPLANTE-2-COPY4-1         364         13   810.E-03
  IMPLANTE-2-COPY4-1         364         14   810.E-03
  IMPLANTE-2-COPY4-1         364         31   810.E-03
  IMPLANTE-2-COPY4-1         365         25   790.E-03
  IMPLANTE-2-COPY4-1         365         80   790.E-03
  IMPLANTE-2-COPY4-1         365         81   790.E-03
  IMPLANTE-2-COPY4-1         365        116   790.E-03
  IMPLANTE-2-COPY4-1         366         94         1.
  IMPLANTE-2-COPY4-1         366        117         1.
  IMPLANTE-2-COPY4-1         366        120         1.
  IMPLANTE-2-COPY4-1         366        268         1.
  IMPLANTE-2-COPY4-1         367         10   999.E-03
  IMPLANTE-2-COPY4-1         367        120   999.E-03
  IMPLANTE-2-COPY4-1         367        268   999.E-03
  IMPLANTE-2-COPY4-1         368        191   831.E-03
  IMPLANTE-2-COPY4-1         368        200   831.E-03
  IMPLANTE-2-COPY4-1         368        232   831.E-03
  IMPLANTE-2-COPY4-1         368        265   831.E-03
  IMPLANTE-2-COPY4-1         369        151   846.E-03
  IMPLANTE-2-COPY4-1         369        234   846.E-03
  IMPLANTE-2-COPY4-1         369        255   846.E-03
  IMPLANTE-2-COPY4-1         369        265   846.E-03
  IMPLANTE-2-COPY4-1         370        176   389.E-03
  IMPLANTE-2-COPY4-1         370        243   389.E-03
  IMPLANTE-2-COPY4-1         370        246   389.E-03
  IMPLANTE-2-COPY4-1         370        258   389.E-03
  IMPLANTE-2-COPY4-1         371        236   352.E-03
  IMPLANTE-2-COPY4-1         371        243   352.E-03
  IMPLANTE-2-COPY4-1         371        258   352.E-03
  IMPLANTE-2-COPY4-1         372        193   772.E-03
  IMPLANTE-2-COPY4-1         372        226   772.E-03
  IMPLANTE-2-COPY4-1         372        262   772.E-03
  IMPLANTE-2-COPY4-1         372        263   772.E-03
  IMPLANTE-2-COPY4-1         373        330   510.E-03
  IMPLANTE-2-COPY4-1         373        331   510.E-03
  IMPLANTE-2-COPY4-1         373        335   510.E-03
  IMPLANTE-2-COPY4-1         373        410   510.E-03
  IMPLANTE-2-COPY4-1         374        329   521.E-03
  IMPLANTE-2-COPY4-1         374        330   521.E-03
  IMPLANTE-2-COPY4-1         374        398   521.E-03
  IMPLANTE-2-COPY4-1         374        410   521.E-03
  IMPLANTE-2-COPY4-1         375        283   392.E-03
  IMPLANTE-2-COPY4-1         375        314   392.E-03
  IMPLANTE-2-COPY4-1         375        334   392.E-03
  IMPLANTE-2-COPY4-1         375        407   392.E-03
  IMPLANTE-2-COPY4-1         376        283   456.E-03
  IMPLANTE-2-COPY4-1         376        329   456.E-03
  IMPLANTE-2-COPY4-1         376        334   456.E-03
  IMPLANTE-2-COPY4-1         376        398   456.E-03
  IMPLANTE-2-COPY4-1         377        273   527.E-03
  IMPLANTE-2-COPY4-1         377        338   527.E-03
  IMPLANTE-2-COPY4-1         377        362   527.E-03
  IMPLANTE-2-COPY4-1         377        418   527.E-03
  IMPLANTE-2-COPY4-1         378        301   819.E-03
  IMPLANTE-2-COPY4-1         378        312   819.E-03
  IMPLANTE-2-COPY4-1         378        376   819.E-03
  IMPLANTE-2-COPY4-1         378        416   819.E-03
  IMPLANTE-2-COPY4-1         379        299   762.E-03
  IMPLANTE-2-COPY4-1         379        301   762.E-03
  IMPLANTE-2-COPY4-1         379        340   762.E-03
  IMPLANTE-2-COPY4-1         379        416   762.E-03
  IMPLANTE-2-COPY4-1         380        272   667.E-03
  IMPLANTE-2-COPY4-1         380        338   667.E-03
  IMPLANTE-2-COPY4-1         380        372   667.E-03
  IMPLANTE-2-COPY4-1         380        418   667.E-03
  IMPLANTE-2-COPY4-1         381        272   716.E-03
  IMPLANTE-2-COPY4-1         381        299   716.E-03
  IMPLANTE-2-COPY4-1         381        340   716.E-03
  IMPLANTE-2-COPY4-1         381        372   716.E-03
  IMPLANTE-2-COPY4-1         382        296   692.E-03
  IMPLANTE-2-COPY4-1         382        307   692.E-03
  IMPLANTE-2-COPY4-1         382        364   692.E-03
  IMPLANTE-2-COPY4-1         382        464   692.E-03
  IMPLANTE-2-COPY4-1         383        274         1.
  IMPLANTE-2-COPY4-1         383        293         1.
  IMPLANTE-2-COPY4-1         383        360         1.
  IMPLANTE-2-COPY4-1         383        456         1.
  IMPLANTE-2-COPY4-1         384        277   819.E-03
  IMPLANTE-2-COPY4-1         384        278   819.E-03
  IMPLANTE-2-COPY4-1         384        345   819.E-03
  IMPLANTE-2-COPY4-1         384        354   819.E-03
  IMPLANTE-2-COPY4-1         385        271         1.
  IMPLANTE-2-COPY4-1         385        328         1.
  IMPLANTE-2-COPY4-1         385        346         1.
  IMPLANTE-2-COPY4-1         385        426         1.
  IMPLANTE-2-COPY4-1         386        270         1.
  IMPLANTE-2-COPY4-1         386        289         1.
  IMPLANTE-2-COPY4-1         386        348         1.
  IMPLANTE-2-COPY4-1         386        402         1.
  IMPLANTE-2-COPY4-1         387        269   908.E-03
  IMPLANTE-2-COPY4-1         387        276   908.E-03
  IMPLANTE-2-COPY4-1         387        450   908.E-03
  IMPLANTE-2-COPY4-1         387        451   908.E-03
  IMPLANTE-2-COPY4-1         388        327         1.
  IMPLANTE-2-COPY4-1         388        328         1.
  IMPLANTE-2-COPY4-1         388        346         1.
  IMPLANTE-2-COPY4-1         388        454         1.
  IMPLANTE-2-COPY4-1         389        269         1.
  IMPLANTE-2-COPY4-1         389        271         1.
  IMPLANTE-2-COPY4-1         389        426         1.
  IMPLANTE-2-COPY4-1         389        451         1.
  IMPLANTE-2-COPY4-1         390        274         1.
  IMPLANTE-2-COPY4-1         390        291         1.
  IMPLANTE-2-COPY4-1         390        359         1.
  IMPLANTE-2-COPY4-1         390        360         1.
  IMPLANTE-2-COPY4-1         391        277   756.E-03
  IMPLANTE-2-COPY4-1         391        284   756.E-03
  IMPLANTE-2-COPY4-1         391        345   756.E-03
  IMPLANTE-2-COPY4-1         391        430   756.E-03
  IMPLANTE-2-COPY4-1         392        278   890.E-03
  IMPLANTE-2-COPY4-1         392        280   890.E-03
  IMPLANTE-2-COPY4-1         392        354   890.E-03
  IMPLANTE-2-COPY4-1         392        452   890.E-03
  IMPLANTE-2-COPY4-1         393        280   908.E-03
  IMPLANTE-2-COPY4-1         393        281   908.E-03
  IMPLANTE-2-COPY4-1         393        445   908.E-03
  IMPLANTE-2-COPY4-1         393        452   908.E-03
  IMPLANTE-2-COPY4-1         394        281   798.E-03
  IMPLANTE-2-COPY4-1         394        333   798.E-03
  IMPLANTE-2-COPY4-1         394        412   798.E-03
  IMPLANTE-2-COPY4-1         394        445   798.E-03
  IMPLANTE-2-COPY4-1         395        276   772.E-03
  IMPLANTE-2-COPY4-1         395        284   772.E-03
  IMPLANTE-2-COPY4-1         395        430   772.E-03
  IMPLANTE-2-COPY4-1         395        450   772.E-03
  IMPLANTE-2-COPY4-1         396        270         1.
  IMPLANTE-2-COPY4-1         396        327         1.
  IMPLANTE-2-COPY4-1         396        402         1.
  IMPLANTE-2-COPY4-1         396        454         1.
  IMPLANTE-2-COPY4-1         397        289         1.
  IMPLANTE-2-COPY4-1         397        347         1.
  IMPLANTE-2-COPY4-1         397        348         1.
  IMPLANTE-2-COPY4-1         397        424         1.
  IMPLANTE-2-COPY4-1         398        291         1.
  IMPLANTE-2-COPY4-1         398        347         1.
  IMPLANTE-2-COPY4-1         398        359         1.
  IMPLANTE-2-COPY4-1         398        424         1.
  IMPLANTE-2-COPY4-1         399        295   618.E-03
  IMPLANTE-2-COPY4-1         399        296   618.E-03
  IMPLANTE-2-COPY4-1         399        352   618.E-03
  IMPLANTE-2-COPY4-1         399        464   618.E-03
  IMPLANTE-2-COPY4-1         400        293   817.E-03
  IMPLANTE-2-COPY4-1         400        306   817.E-03
  IMPLANTE-2-COPY4-1         400        363   817.E-03
  IMPLANTE-2-COPY4-1         400        456   817.E-03
  IMPLANTE-2-COPY4-1         401        295   647.E-03
  IMPLANTE-2-COPY4-1         401        306   647.E-03
  IMPLANTE-2-COPY4-1         401        352   647.E-03
  IMPLANTE-2-COPY4-1         401        363   647.E-03
  IMPLANTE-2-COPY4-1         402        331   521.E-03
  IMPLANTE-2-COPY4-1         402        333   521.E-03
  IMPLANTE-2-COPY4-1         402        335   521.E-03
  IMPLANTE-2-COPY4-1         402        412   521.E-03
  IMPLANTE-2-COPY4-1         403        273   685.E-03
  IMPLANTE-2-COPY4-1         403        307   685.E-03
  IMPLANTE-2-COPY4-1         403        362   685.E-03
  IMPLANTE-2-COPY4-1         403        364   685.E-03
  IMPLANTE-2-COPY4-1         404        303         4.
  IMPLANTE-2-COPY4-1         404        305         4.
  IMPLANTE-2-COPY4-1         404        343         4.
  IMPLANTE-2-COPY4-1         404        369         4.
  IMPLANTE-2-COPY4-1         405        294         3.
  IMPLANTE-2-COPY4-1         405        305         3.
  IMPLANTE-2-COPY4-1         405        343         3.
  IMPLANTE-2-COPY4-1         405        377         3.
  IMPLANTE-2-COPY4-1         406        298   666.E-03
  IMPLANTE-2-COPY4-1         406        309   666.E-03
  IMPLANTE-2-COPY4-1         406        373   666.E-03
  IMPLANTE-2-COPY4-1         406        419   666.E-03
  IMPLANTE-2-COPY4-1         407        308   738.E-03
  IMPLANTE-2-COPY4-1         407        342   738.E-03
  IMPLANTE-2-COPY4-1         407        374   738.E-03
  IMPLANTE-2-COPY4-1         407        382   738.E-03
  IMPLANTE-2-COPY4-1         408        337   658.E-03
  IMPLANTE-2-COPY4-1         408        368   658.E-03
  IMPLANTE-2-COPY4-1         408        375   658.E-03
  IMPLANTE-2-COPY4-1         408        414   658.E-03
  IMPLANTE-2-COPY4-1         409        300   749.E-03
  IMPLANTE-2-COPY4-1         409        311   749.E-03
  IMPLANTE-2-COPY4-1         409        341   749.E-03
  IMPLANTE-2-COPY4-1         409        417   749.E-03
  IMPLANTE-2-COPY4-1         410        294         1.
  IMPLANTE-2-COPY4-1         410        365         1.
  IMPLANTE-2-COPY4-1         410        371         1.
  IMPLANTE-2-COPY4-1         410        377         1.
  IMPLANTE-2-COPY4-1         411        365         1.
  IMPLANTE-2-COPY4-1         411        371         1.
  IMPLANTE-2-COPY4-1         411        379         1.
  IMPLANTE-2-COPY4-1         411        415         1.
  IMPLANTE-2-COPY4-1         412        337   648.E-03
  IMPLANTE-2-COPY4-1         412        375   648.E-03
  IMPLANTE-2-COPY4-1         412        380   648.E-03
  IMPLANTE-2-COPY4-1         412        381   648.E-03
  IMPLANTE-2-COPY4-1         413        374   829.E-03
  IMPLANTE-2-COPY4-1         413        379   829.E-03
  IMPLANTE-2-COPY4-1         413        382   829.E-03
  IMPLANTE-2-COPY4-1         413        415   829.E-03
  IMPLANTE-2-COPY4-1         414        308   685.E-03
  IMPLANTE-2-COPY4-1         414        342   685.E-03
  IMPLANTE-2-COPY4-1         414        368   685.E-03
  IMPLANTE-2-COPY4-1         414        414   685.E-03
  IMPLANTE-2-COPY4-1         415        373   652.E-03
  IMPLANTE-2-COPY4-1         415        380   652.E-03
  IMPLANTE-2-COPY4-1         415        381   652.E-03
  IMPLANTE-2-COPY4-1         415        419   652.E-03
  IMPLANTE-2-COPY4-1         416        300   788.E-03
  IMPLANTE-2-COPY4-1         416        311   788.E-03
  IMPLANTE-2-COPY4-1         416        384   788.E-03
  IMPLANTE-2-COPY4-1         416        447   788.E-03
  IMPLANTE-2-COPY4-1         417        310   716.E-03
  IMPLANTE-2-COPY4-1         417        341   716.E-03
  IMPLANTE-2-COPY4-1         417        385   716.E-03
  IMPLANTE-2-COPY4-1         417        417   716.E-03
  IMPLANTE-2-COPY4-1         418        298   687.E-03
  IMPLANTE-2-COPY4-1         418        309   687.E-03
  IMPLANTE-2-COPY4-1         418        310   687.E-03
  IMPLANTE-2-COPY4-1         418        385   687.E-03
  IMPLANTE-2-COPY4-1         419        288         2.
  IMPLANTE-2-COPY4-1         419        361         2.
  IMPLANTE-2-COPY4-1         419        387         2.
  IMPLANTE-2-COPY4-1         419        425         2.
  IMPLANTE-2-COPY4-1         420        275         1.
  IMPLANTE-2-COPY4-1         420        288         1.
  IMPLANTE-2-COPY4-1         420        357         1.
  IMPLANTE-2-COPY4-1         420        425         1.
  IMPLANTE-2-COPY4-1         421        324   383.E-03
  IMPLANTE-2-COPY4-1         421        389   383.E-03
  IMPLANTE-2-COPY4-1         421        401   383.E-03
  IMPLANTE-2-COPY4-1         421        427   383.E-03
  IMPLANTE-2-COPY4-1         422        344   344.E-03
  IMPLANTE-2-COPY4-1         422        390   344.E-03
  IMPLANTE-2-COPY4-1         422        395   344.E-03
  IMPLANTE-2-COPY4-1         422        431   344.E-03
  IMPLANTE-2-COPY4-1         423        350   647.E-03
  IMPLANTE-2-COPY4-1         423        358   647.E-03
  IMPLANTE-2-COPY4-1         423        388   647.E-03
  IMPLANTE-2-COPY4-1         423        391   647.E-03
  IMPLANTE-2-COPY4-1         424        321   353.E-03
  IMPLANTE-2-COPY4-1         424        349   353.E-03
  IMPLANTE-2-COPY4-1         424        393   353.E-03
  IMPLANTE-2-COPY4-1         424        409   353.E-03
  IMPLANTE-2-COPY4-1         425        321   349.E-03
  IMPLANTE-2-COPY4-1         425        394   349.E-03
  IMPLANTE-2-COPY4-1         425        409   349.E-03
  IMPLANTE-2-COPY4-1         425        429   349.E-03
  IMPLANTE-2-COPY4-1         426        315   321.E-03
  IMPLANTE-2-COPY4-1         426        396   321.E-03
  IMPLANTE-2-COPY4-1         426        407   321.E-03
  IMPLANTE-2-COPY4-1         426        542   321.E-03
  IMPLANTE-2-COPY4-1         427        320   341.E-03
  IMPLANTE-2-COPY4-1         427        397   341.E-03
  IMPLANTE-2-COPY4-1         427        408   341.E-03
  IMPLANTE-2-COPY4-1         427        428   341.E-03
  IMPLANTE-2-COPY4-1         428        282   330.E-03
  IMPLANTE-2-COPY4-1         428        316   330.E-03
  IMPLANTE-2-COPY4-1         428        396   330.E-03
  IMPLANTE-2-COPY4-1         428        542   330.E-03
  IMPLANTE-2-COPY4-1         429        332   337.E-03
  IMPLANTE-2-COPY4-1         429        355   337.E-03
  IMPLANTE-2-COPY4-1         429        399   337.E-03
  IMPLANTE-2-COPY4-1         429        435   337.E-03
  IMPLANTE-2-COPY4-1         430        318   338.E-03
  IMPLANTE-2-COPY4-1         430        355   338.E-03
  IMPLANTE-2-COPY4-1         430        399   338.E-03
  IMPLANTE-2-COPY4-1         430        400   338.E-03
  IMPLANTE-2-COPY4-1         431        282   335.E-03
  IMPLANTE-2-COPY4-1         431        316   335.E-03
  IMPLANTE-2-COPY4-1         431        332   335.E-03
  IMPLANTE-2-COPY4-1         431        435   335.E-03
  IMPLANTE-2-COPY4-1         432        350   541.E-03
  IMPLANTE-2-COPY4-1         432        351   541.E-03
  IMPLANTE-2-COPY4-1         432        391   541.E-03
  IMPLANTE-2-COPY4-1         432        392   541.E-03
  IMPLANTE-2-COPY4-1         433        356   369.E-03
  IMPLANTE-2-COPY4-1         433        389   369.E-03
  IMPLANTE-2-COPY4-1         433        403   369.E-03
  IMPLANTE-2-COPY4-1         433        427   369.E-03
  IMPLANTE-2-COPY4-1         434        287   403.E-03
  IMPLANTE-2-COPY4-1         434        324   403.E-03
  IMPLANTE-2-COPY4-1         434        401   403.E-03
  IMPLANTE-2-COPY4-1         434        437   403.E-03
  IMPLANTE-2-COPY4-1         435        318   339.E-03
  IMPLANTE-2-COPY4-1         435        397   339.E-03
  IMPLANTE-2-COPY4-1         435        400   339.E-03
  IMPLANTE-2-COPY4-1         435        428   339.E-03
  IMPLANTE-2-COPY4-1         436        287   432.E-03
  IMPLANTE-2-COPY4-1         436        405   432.E-03
  IMPLANTE-2-COPY4-1         436        436   432.E-03
  IMPLANTE-2-COPY4-1         436        437   432.E-03
  IMPLANTE-2-COPY4-1         437        319   343.E-03
  IMPLANTE-2-COPY4-1         437        390   343.E-03
  IMPLANTE-2-COPY4-1         437        406   343.E-03
  IMPLANTE-2-COPY4-1         437        431   343.E-03
  IMPLANTE-2-COPY4-1         438        313   321.E-03
  IMPLANTE-2-COPY4-1         438        314   321.E-03
  IMPLANTE-2-COPY4-1         438        315   321.E-03
  IMPLANTE-2-COPY4-1         438        407   321.E-03
  IMPLANTE-2-COPY4-1         439        319   341.E-03
  IMPLANTE-2-COPY4-1         439        320   341.E-03
  IMPLANTE-2-COPY4-1         439        406   341.E-03
  IMPLANTE-2-COPY4-1         439        408   341.E-03
  IMPLANTE-2-COPY4-1         440        351   475.E-03
  IMPLANTE-2-COPY4-1         440        392   475.E-03
  IMPLANTE-2-COPY4-1         440        405   475.E-03
  IMPLANTE-2-COPY4-1         440        436   475.E-03
  IMPLANTE-2-COPY4-1         441        344   346.E-03
  IMPLANTE-2-COPY4-1         441        394   346.E-03
  IMPLANTE-2-COPY4-1         441        395   346.E-03
  IMPLANTE-2-COPY4-1         441        429   346.E-03
  IMPLANTE-2-COPY4-1         442        349   359.E-03
  IMPLANTE-2-COPY4-1         442        356   359.E-03
  IMPLANTE-2-COPY4-1         442        393   359.E-03
  IMPLANTE-2-COPY4-1         442        403   359.E-03
  IMPLANTE-2-COPY4-1         443        275   830.E-03
  IMPLANTE-2-COPY4-1         443        357   830.E-03
  IMPLANTE-2-COPY4-1         443        358   830.E-03
  IMPLANTE-2-COPY4-1         443        388   830.E-03
  IMPLANTE-2-COPY4-1         444        334   424.E-03
  IMPLANTE-2-COPY4-1         444        336   424.E-03
  IMPLANTE-2-COPY4-1         444        398   424.E-03
  IMPLANTE-2-COPY4-1         444        505   424.E-03
  IMPLANTE-2-COPY4-1         445        334   369.E-03
  IMPLANTE-2-COPY4-1         445        336   369.E-03
  IMPLANTE-2-COPY4-1         445        407   369.E-03
  IMPLANTE-2-COPY4-1         445        542   369.E-03
  IMPLANTE-2-COPY4-1         446        398   455.E-03
  IMPLANTE-2-COPY4-1         446        410   455.E-03
  IMPLANTE-2-COPY4-1         446        505   455.E-03
  IMPLANTE-2-COPY4-1         446        685   455.E-03
  IMPLANTE-2-COPY4-1         447        305         3.
  IMPLANTE-2-COPY4-1         447        377         3.
  IMPLANTE-2-COPY4-1         447        478         3.
  IMPLANTE-2-COPY4-1         447        479         3.
  IMPLANTE-2-COPY4-1         448        367   754.E-03
  IMPLANTE-2-COPY4-1         448        375   754.E-03
  IMPLANTE-2-COPY4-1         448        380   754.E-03
  IMPLANTE-2-COPY4-1         448        474   754.E-03
  IMPLANTE-2-COPY4-1         449        308   979.E-03
  IMPLANTE-2-COPY4-1         449        382   979.E-03
  IMPLANTE-2-COPY4-1         449        423   979.E-03
  IMPLANTE-2-COPY4-1         449        465   979.E-03
  IMPLANTE-2-COPY4-1         450        300   781.E-03
  IMPLANTE-2-COPY4-1         450        339   781.E-03
  IMPLANTE-2-COPY4-1         450        340   781.E-03
  IMPLANTE-2-COPY4-1         450        416   781.E-03
  IMPLANTE-2-COPY4-1         450        447   781.E-03
  IMPLANTE-2-COPY4-1         451        298   726.E-03
  IMPLANTE-2-COPY4-1         451        310   726.E-03
  IMPLANTE-2-COPY4-1         451        446   726.E-03
  IMPLANTE-2-COPY4-1         451        486   726.E-03
  IMPLANTE-2-COPY4-1         452        310   738.E-03
  IMPLANTE-2-COPY4-1         452        417   738.E-03
  IMPLANTE-2-COPY4-1         452        420   738.E-03
  IMPLANTE-2-COPY4-1         452        446   738.E-03
  IMPLANTE-2-COPY4-1         453        298   723.E-03
  IMPLANTE-2-COPY4-1         453        419   723.E-03
  IMPLANTE-2-COPY4-1         453        448   723.E-03
  IMPLANTE-2-COPY4-1         453        486   723.E-03
  IMPLANTE-2-COPY4-1         454        365         1.
  IMPLANTE-2-COPY4-1         454        378         1.
  IMPLANTE-2-COPY4-1         454        415         1.
  IMPLANTE-2-COPY4-1         454        466         1.
  IMPLANTE-2-COPY4-1         455        382         1.
  IMPLANTE-2-COPY4-1         455        415         1.
  IMPLANTE-2-COPY4-1         455        423         1.
  IMPLANTE-2-COPY4-1         455        466         1.
  IMPLANTE-2-COPY4-1         456        308   868.E-03
  IMPLANTE-2-COPY4-1         456        414   868.E-03
  IMPLANTE-2-COPY4-1         456        465   868.E-03
  IMPLANTE-2-COPY4-1         456        469   868.E-03
  IMPLANTE-2-COPY4-1         457        367   731.E-03
  IMPLANTE-2-COPY4-1         457        380   731.E-03
  IMPLANTE-2-COPY4-1         457        419   731.E-03
  IMPLANTE-2-COPY4-1         457        448   731.E-03
  IMPLANTE-2-COPY4-1         458        300   757.E-03
  IMPLANTE-2-COPY4-1         458        339   757.E-03
  IMPLANTE-2-COPY4-1         458        417   757.E-03
  IMPLANTE-2-COPY4-1         458        420   757.E-03
  IMPLANTE-2-COPY4-1         459        375   796.E-03
  IMPLANTE-2-COPY4-1         459        414   796.E-03
  IMPLANTE-2-COPY4-1         459        469   796.E-03
  IMPLANTE-2-COPY4-1         459        474   796.E-03
  IMPLANTE-2-COPY4-1         460        365         2.
  IMPLANTE-2-COPY4-1         460        377         2.
  IMPLANTE-2-COPY4-1         460        378         2.
  IMPLANTE-2-COPY4-1         460        478         2.
  IMPLANTE-2-COPY4-1         461        290         3.
  IMPLANTE-2-COPY4-1         461        292         3.
  IMPLANTE-2-COPY4-1         461        361         3.
  IMPLANTE-2-COPY4-1         461        425         3.
  IMPLANTE-2-COPY4-1         462        322   491.E-03
  IMPLANTE-2-COPY4-1         462        401   491.E-03
  IMPLANTE-2-COPY4-1         462        427   491.E-03
  IMPLANTE-2-COPY4-1         462        457   491.E-03
  IMPLANTE-2-COPY4-1         463        317   380.E-03
  IMPLANTE-2-COPY4-1         463        408   380.E-03
  IMPLANTE-2-COPY4-1         463        428   380.E-03
  IMPLANTE-2-COPY4-1         463        444   380.E-03
  IMPLANTE-2-COPY4-1         464        285   440.E-03
  IMPLANTE-2-COPY4-1         464        356   440.E-03
  IMPLANTE-2-COPY4-1         464        393   440.E-03
  IMPLANTE-2-COPY4-1         464        440   440.E-03
  IMPLANTE-2-COPY4-1         465        395   404.E-03
  IMPLANTE-2-COPY4-1         465        429   404.E-03
  IMPLANTE-2-COPY4-1         465        461   404.E-03
  IMPLANTE-2-COPY4-1         465        494   404.E-03
  IMPLANTE-2-COPY4-1         466        319   390.E-03
  IMPLANTE-2-COPY4-1         466        431   390.E-03
  IMPLANTE-2-COPY4-1         466        433   390.E-03
  IMPLANTE-2-COPY4-1         466        453   390.E-03
  IMPLANTE-2-COPY4-1         467        290         2.
  IMPLANTE-2-COPY4-1         467        357         2.
  IMPLANTE-2-COPY4-1         467        425         2.
  IMPLANTE-2-COPY4-1         467        442         2.
  IMPLANTE-2-COPY4-1         468        316   358.E-03
  IMPLANTE-2-COPY4-1         468        413   358.E-03
  IMPLANTE-2-COPY4-1         468        435   358.E-03
  IMPLANTE-2-COPY4-1         468        504   358.E-03
  IMPLANTE-2-COPY4-1         469        326   785.E-03
  IMPLANTE-2-COPY4-1         469        351   785.E-03
  IMPLANTE-2-COPY4-1         469        391   785.E-03
  IMPLANTE-2-COPY4-1         469        404   785.E-03
  IMPLANTE-2-COPY4-1         470        322   531.E-03
  IMPLANTE-2-COPY4-1         470        323   531.E-03
  IMPLANTE-2-COPY4-1         470        401   531.E-03
  IMPLANTE-2-COPY4-1         470        437   531.E-03
  IMPLANTE-2-COPY4-1         471        399   363.E-03
  IMPLANTE-2-COPY4-1         471        413   363.E-03
  IMPLANTE-2-COPY4-1         471        435   363.E-03
  IMPLANTE-2-COPY4-1         471        439   363.E-03
  IMPLANTE-2-COPY4-1         472        409   413.E-03
  IMPLANTE-2-COPY4-1         472        429   413.E-03
  IMPLANTE-2-COPY4-1         472        458   413.E-03
  IMPLANTE-2-COPY4-1         472        494   413.E-03
  IMPLANTE-2-COPY4-1         473        318   369.E-03
  IMPLANTE-2-COPY4-1         473        399   369.E-03
  IMPLANTE-2-COPY4-1         473        439   369.E-03
  IMPLANTE-2-COPY4-1         473        500   369.E-03
  IMPLANTE-2-COPY4-1         474        351   668.E-03
  IMPLANTE-2-COPY4-1         474        404   668.E-03
  IMPLANTE-2-COPY4-1         474        436   668.E-03
  IMPLANTE-2-COPY4-1         474        443   668.E-03
  IMPLANTE-2-COPY4-1         475        325         1.
  IMPLANTE-2-COPY4-1         475        357         1.
  IMPLANTE-2-COPY4-1         475        388         1.
  IMPLANTE-2-COPY4-1         475        442         1.
  IMPLANTE-2-COPY4-1         476        325   961.E-03
  IMPLANTE-2-COPY4-1         476        326   961.E-03
  IMPLANTE-2-COPY4-1         476        388   961.E-03
  IMPLANTE-2-COPY4-1         476        391   961.E-03
  IMPLANTE-2-COPY4-1         477        317   375.E-03
  IMPLANTE-2-COPY4-1         477        318   375.E-03
  IMPLANTE-2-COPY4-1         477        428   375.E-03
  IMPLANTE-2-COPY4-1         477        500   375.E-03
  IMPLANTE-2-COPY4-1         478        393   424.E-03
  IMPLANTE-2-COPY4-1         478        409   424.E-03
  IMPLANTE-2-COPY4-1         478        440   424.E-03
  IMPLANTE-2-COPY4-1         478        458   424.E-03
  IMPLANTE-2-COPY4-1         479        395   396.E-03
  IMPLANTE-2-COPY4-1         479        431   396.E-03
  IMPLANTE-2-COPY4-1         479        433   396.E-03
  IMPLANTE-2-COPY4-1         479        461   396.E-03
  IMPLANTE-2-COPY4-1         480        323   587.E-03
  IMPLANTE-2-COPY4-1         480        436   587.E-03
  IMPLANTE-2-COPY4-1         480        437   587.E-03
  IMPLANTE-2-COPY4-1         480        443   587.E-03
  IMPLANTE-2-COPY4-1         481        319   384.E-03
  IMPLANTE-2-COPY4-1         481        408   384.E-03
  IMPLANTE-2-COPY4-1         481        444   384.E-03
  IMPLANTE-2-COPY4-1         481        453   384.E-03
  IMPLANTE-2-COPY4-1         482        285   461.E-03
  IMPLANTE-2-COPY4-1         482        356   461.E-03
  IMPLANTE-2-COPY4-1         482        427   461.E-03
  IMPLANTE-2-COPY4-1         482        457   461.E-03
  IMPLANTE-2-COPY4-1         483        335   468.E-03
  IMPLANTE-2-COPY4-1         483        410   468.E-03
  IMPLANTE-2-COPY4-1         483        685   468.E-03
  IMPLANTE-2-COPY4-1         483        686   468.E-03
  IMPLANTE-2-COPY4-1         484        372   675.E-03
  IMPLANTE-2-COPY4-1         484        418   675.E-03
  IMPLANTE-2-COPY4-1         484        485   675.E-03
  IMPLANTE-2-COPY4-1         484        487   675.E-03
  IMPLANTE-2-COPY4-1         485        376   815.E-03
  IMPLANTE-2-COPY4-1         485        416   815.E-03
  IMPLANTE-2-COPY4-1         485        447   815.E-03
  IMPLANTE-2-COPY4-1         486        362   618.E-03
  IMPLANTE-2-COPY4-1         486        418   618.E-03
  IMPLANTE-2-COPY4-1         486        483   618.E-03
  IMPLANTE-2-COPY4-1         486        485   618.E-03
  IMPLANTE-2-COPY4-1         487        362   650.E-03
  IMPLANTE-2-COPY4-1         487        364   650.E-03
  IMPLANTE-2-COPY4-1         487        483   650.E-03
  IMPLANTE-2-COPY4-1         487        516   650.E-03
  IMPLANTE-2-COPY4-1         488        430   806.E-03
  IMPLANTE-2-COPY4-1         488        450   806.E-03
  IMPLANTE-2-COPY4-1         488        526   806.E-03
  IMPLANTE-2-COPY4-1         488        531   806.E-03
  IMPLANTE-2-COPY4-1         489        412   698.E-03
  IMPLANTE-2-COPY4-1         489        445   698.E-03
  IMPLANTE-2-COPY4-1         489        538   698.E-03
  IMPLANTE-2-COPY4-1         489        540   698.E-03
  IMPLANTE-2-COPY4-1         490        328         1.
  IMPLANTE-2-COPY4-1         490        426         1.
  IMPLANTE-2-COPY4-1         490        522         1.
  IMPLANTE-2-COPY4-1         490        545         1.
  IMPLANTE-2-COPY4-1         491        328         1.
  IMPLANTE-2-COPY4-1         491        454         1.
  IMPLANTE-2-COPY4-1         491        522         1.
  IMPLANTE-2-COPY4-1         491        548         1.
  IMPLANTE-2-COPY4-1         492        360   976.E-03
  IMPLANTE-2-COPY4-1         492        456   976.E-03
  IMPLANTE-2-COPY4-1         492        467   976.E-03
  IMPLANTE-2-COPY4-1         492        511   976.E-03
  IMPLANTE-2-COPY4-1         493        277   812.E-03
  IMPLANTE-2-COPY4-1         493        353   812.E-03
  IMPLANTE-2-COPY4-1         493        354   812.E-03
  IMPLANTE-2-COPY4-1         493        366   812.E-03
  IMPLANTE-2-COPY4-1         494        359         1.
  IMPLANTE-2-COPY4-1         494        360         1.
  IMPLANTE-2-COPY4-1         494        467         1.
  IMPLANTE-2-COPY4-1         494        468         1.
  IMPLANTE-2-COPY4-1         495        348         1.
  IMPLANTE-2-COPY4-1         495        402         1.
  IMPLANTE-2-COPY4-1         495        434         1.
  IMPLANTE-2-COPY4-1         495        547         1.
  IMPLANTE-2-COPY4-1         496        354   839.E-03
  IMPLANTE-2-COPY4-1         496        366   839.E-03
  IMPLANTE-2-COPY4-1         496        452   839.E-03
  IMPLANTE-2-COPY4-1         496        536   839.E-03
  IMPLANTE-2-COPY4-1         497        348         1.
  IMPLANTE-2-COPY4-1         497        424         1.
  IMPLANTE-2-COPY4-1         497        471         1.
  IMPLANTE-2-COPY4-1         497        547         1.
  IMPLANTE-2-COPY4-1         498        352   705.E-03
  IMPLANTE-2-COPY4-1         498        363   705.E-03
  IMPLANTE-2-COPY4-1         498        422   705.E-03
  IMPLANTE-2-COPY4-1         498        517   705.E-03
  IMPLANTE-2-COPY4-1         499        363   824.E-03
  IMPLANTE-2-COPY4-1         499        422   824.E-03
  IMPLANTE-2-COPY4-1         499        456   824.E-03
  IMPLANTE-2-COPY4-1         499        511   824.E-03
  IMPLANTE-2-COPY4-1         500        359         1.
  IMPLANTE-2-COPY4-1         500        424         1.
  IMPLANTE-2-COPY4-1         500        468         1.
  IMPLANTE-2-COPY4-1         500        471         1.
  IMPLANTE-2-COPY4-1         501        352   674.E-03
  IMPLANTE-2-COPY4-1         501        464   674.E-03
  IMPLANTE-2-COPY4-1         501        480   674.E-03
  IMPLANTE-2-COPY4-1         501        517   674.E-03
  IMPLANTE-2-COPY4-1         502        279   904.E-03
  IMPLANTE-2-COPY4-1         502        450   904.E-03
  IMPLANTE-2-COPY4-1         502        451   904.E-03
  IMPLANTE-2-COPY4-1         502        526   904.E-03
  IMPLANTE-2-COPY4-1         503        445   817.E-03
  IMPLANTE-2-COPY4-1         503        452   817.E-03
  IMPLANTE-2-COPY4-1         503        536   817.E-03
  IMPLANTE-2-COPY4-1         503        538   817.E-03
  IMPLANTE-2-COPY4-1         504        277   777.E-03
  IMPLANTE-2-COPY4-1         504        353   777.E-03
  IMPLANTE-2-COPY4-1         504        430   777.E-03
  IMPLANTE-2-COPY4-1         504        531   777.E-03
  IMPLANTE-2-COPY4-1         505        402         1.
  IMPLANTE-2-COPY4-1         505        434         1.
  IMPLANTE-2-COPY4-1         505        454         1.
  IMPLANTE-2-COPY4-1         505        548         1.
  IMPLANTE-2-COPY4-1         506        279         1.
  IMPLANTE-2-COPY4-1         506        426         1.
  IMPLANTE-2-COPY4-1         506        451         1.
  IMPLANTE-2-COPY4-1         506        545         1.
  IMPLANTE-2-COPY4-1         507        364   686.E-03
  IMPLANTE-2-COPY4-1         507        464   686.E-03
  IMPLANTE-2-COPY4-1         507        480   686.E-03
  IMPLANTE-2-COPY4-1         507        516   686.E-03
  IMPLANTE-2-COPY4-1         508        335   531.E-03
  IMPLANTE-2-COPY4-1         508        412   531.E-03
  IMPLANTE-2-COPY4-1         508        506   531.E-03
  IMPLANTE-2-COPY4-1         508        540   531.E-03
  IMPLANTE-2-COPY4-1         508        686   531.E-03
  IMPLANTE-2-COPY4-1         509        303         4.
  IMPLANTE-2-COPY4-1         509        369         4.
  IMPLANTE-2-COPY4-1         509        476         4.
  IMPLANTE-2-COPY4-1         509        608         4.
  IMPLANTE-2-COPY4-1         510        339   740.E-03
  IMPLANTE-2-COPY4-1         510        340   740.E-03
  IMPLANTE-2-COPY4-1         510        372   740.E-03
  IMPLANTE-2-COPY4-1         510        487   740.E-03
  IMPLANTE-2-COPY4-1         511        304         2.
  IMPLANTE-2-COPY4-1         511        378         2.
  IMPLANTE-2-COPY4-1         511        478         2.
  IMPLANTE-2-COPY4-1         511        510         2.
  IMPLANTE-2-COPY4-1         512        286         2.
  IMPLANTE-2-COPY4-1         512        290         2.
  IMPLANTE-2-COPY4-1         512        442         2.
  IMPLANTE-2-COPY4-1         512        463         2.
  IMPLANTE-2-COPY4-1         513        304         2.
  IMPLANTE-2-COPY4-1         513        370         2.
  IMPLANTE-2-COPY4-1         513        378         2.
  IMPLANTE-2-COPY4-1         513        466         2.
  IMPLANTE-2-COPY4-1         514        297         1.
  IMPLANTE-2-COPY4-1         514        370         1.
  IMPLANTE-2-COPY4-1         514        423         1.
  IMPLANTE-2-COPY4-1         514        466         1.
  IMPLANTE-2-COPY4-1         515        297         1.
  IMPLANTE-2-COPY4-1         515        423         1.
  IMPLANTE-2-COPY4-1         515        465         1.
  IMPLANTE-2-COPY4-1         515        513         1.
  IMPLANTE-2-COPY4-1         516        449         1.
  IMPLANTE-2-COPY4-1         516        465         1.
  IMPLANTE-2-COPY4-1         516        469         1.
  IMPLANTE-2-COPY4-1         516        513         1.
  IMPLANTE-2-COPY4-1         517        449   898.E-03
  IMPLANTE-2-COPY4-1         517        469   898.E-03
  IMPLANTE-2-COPY4-1         517        473   898.E-03
  IMPLANTE-2-COPY4-1         517        474   898.E-03
  IMPLANTE-2-COPY4-1         518        367   830.E-03
  IMPLANTE-2-COPY4-1         518        473   830.E-03
  IMPLANTE-2-COPY4-1         518        474   830.E-03
  IMPLANTE-2-COPY4-1         518        484   830.E-03
  IMPLANTE-2-COPY4-1         519        367   787.E-03
  IMPLANTE-2-COPY4-1         519        448   787.E-03
  IMPLANTE-2-COPY4-1         519        484   787.E-03
  IMPLANTE-2-COPY4-1         519        518   787.E-03
  IMPLANTE-2-COPY4-1         520        448   762.E-03
  IMPLANTE-2-COPY4-1         520        486   762.E-03
  IMPLANTE-2-COPY4-1         520        509   762.E-03
  IMPLANTE-2-COPY4-1         520        518   762.E-03
  IMPLANTE-2-COPY4-1         521        446   749.E-03
  IMPLANTE-2-COPY4-1         521        486   749.E-03
  IMPLANTE-2-COPY4-1         521        508   749.E-03
  IMPLANTE-2-COPY4-1         521        509   749.E-03
  IMPLANTE-2-COPY4-1         522        386   742.E-03
  IMPLANTE-2-COPY4-1         522        420   742.E-03
  IMPLANTE-2-COPY4-1         522        446   742.E-03
  IMPLANTE-2-COPY4-1         522        508   742.E-03
  IMPLANTE-2-COPY4-1         523        339   742.E-03
  IMPLANTE-2-COPY4-1         523        386   742.E-03
  IMPLANTE-2-COPY4-1         523        420   742.E-03
  IMPLANTE-2-COPY4-1         523        487   742.E-03
  IMPLANTE-2-COPY4-1         524        286         1.
  IMPLANTE-2-COPY4-1         524        325         1.
  IMPLANTE-2-COPY4-1         524        442         1.
  IMPLANTE-2-COPY4-1         524        455         1.
  IMPLANTE-2-COPY4-1         525        325         1.
  IMPLANTE-2-COPY4-1         525        326         1.
  IMPLANTE-2-COPY4-1         525        438         1.
  IMPLANTE-2-COPY4-1         525        455         1.
  IMPLANTE-2-COPY4-1         526        326   967.E-03
  IMPLANTE-2-COPY4-1         526        404   967.E-03
  IMPLANTE-2-COPY4-1         526        438   967.E-03
  IMPLANTE-2-COPY4-1         526        488   967.E-03
  IMPLANTE-2-COPY4-1         527        404   823.E-03
  IMPLANTE-2-COPY4-1         527        443   823.E-03
  IMPLANTE-2-COPY4-1         527        488   823.E-03
  IMPLANTE-2-COPY4-1         527        521   823.E-03
  IMPLANTE-2-COPY4-1         528        323   721.E-03
  IMPLANTE-2-COPY4-1         528        443   721.E-03
  IMPLANTE-2-COPY4-1         528        521   721.E-03
  IMPLANTE-2-COPY4-1         528        524   721.E-03
  IMPLANTE-2-COPY4-1         529        322   647.E-03
  IMPLANTE-2-COPY4-1         529        323   647.E-03
  IMPLANTE-2-COPY4-1         529        495   647.E-03
  IMPLANTE-2-COPY4-1         529        524   647.E-03
  IMPLANTE-2-COPY4-1         530        322   592.E-03
  IMPLANTE-2-COPY4-1         530        432   592.E-03
  IMPLANTE-2-COPY4-1         530        457   592.E-03
  IMPLANTE-2-COPY4-1         530        495   592.E-03
  IMPLANTE-2-COPY4-1         531        285   551.E-03
  IMPLANTE-2-COPY4-1         531        432   551.E-03
  IMPLANTE-2-COPY4-1         531        457   551.E-03
  IMPLANTE-2-COPY4-1         531        470   551.E-03
  IMPLANTE-2-COPY4-1         532        285   520.E-03
  IMPLANTE-2-COPY4-1         532        440   520.E-03
  IMPLANTE-2-COPY4-1         532        470   520.E-03
  IMPLANTE-2-COPY4-1         532        493   520.E-03
  IMPLANTE-2-COPY4-1         533        440   496.E-03
  IMPLANTE-2-COPY4-1         533        458   496.E-03
  IMPLANTE-2-COPY4-1         533        493   496.E-03
  IMPLANTE-2-COPY4-1         533        497   496.E-03
  IMPLANTE-2-COPY4-1         534        458   477.E-03
  IMPLANTE-2-COPY4-1         534        494   477.E-03
  IMPLANTE-2-COPY4-1         534        497   477.E-03
  IMPLANTE-2-COPY4-1         534        529   477.E-03
  IMPLANTE-2-COPY4-1         535        461   461.E-03
  IMPLANTE-2-COPY4-1         535        494   461.E-03
  IMPLANTE-2-COPY4-1         535        498   461.E-03
  IMPLANTE-2-COPY4-1         535        529   461.E-03
  IMPLANTE-2-COPY4-1         536        433   448.E-03
  IMPLANTE-2-COPY4-1         536        461   448.E-03
  IMPLANTE-2-COPY4-1         536        498   448.E-03
  IMPLANTE-2-COPY4-1         536        499   448.E-03
  IMPLANTE-2-COPY4-1         537        433   438.E-03
  IMPLANTE-2-COPY4-1         537        453   438.E-03
  IMPLANTE-2-COPY4-1         537        499   438.E-03
  IMPLANTE-2-COPY4-1         537        501   438.E-03
  IMPLANTE-2-COPY4-1         538        444   430.E-03
  IMPLANTE-2-COPY4-1         538        453   430.E-03
  IMPLANTE-2-COPY4-1         538        501   430.E-03
  IMPLANTE-2-COPY4-1         538        502   430.E-03
  IMPLANTE-2-COPY4-1         539        317   424.E-03
  IMPLANTE-2-COPY4-1         539        444   424.E-03
  IMPLANTE-2-COPY4-1         539        502   424.E-03
  IMPLANTE-2-COPY4-1         539        535   424.E-03
  IMPLANTE-2-COPY4-1         540        317   417.E-03
  IMPLANTE-2-COPY4-1         540        500   417.E-03
  IMPLANTE-2-COPY4-1         540        507   417.E-03
  IMPLANTE-2-COPY4-1         540        535   417.E-03
  IMPLANTE-2-COPY4-1         541        439   409.E-03
  IMPLANTE-2-COPY4-1         541        500   409.E-03
  IMPLANTE-2-COPY4-1         541        507   409.E-03
  IMPLANTE-2-COPY4-1         541        539   409.E-03
  IMPLANTE-2-COPY4-1         542        411   402.E-03
  IMPLANTE-2-COPY4-1         542        413   402.E-03
  IMPLANTE-2-COPY4-1         542        439   402.E-03
  IMPLANTE-2-COPY4-1         542        441   402.E-03
  IMPLANTE-2-COPY4-1         542        539   402.E-03
  IMPLANTE-2-COPY4-1         543        413   383.E-03
  IMPLANTE-2-COPY4-1         543        441   383.E-03
  IMPLANTE-2-COPY4-1         543        504   383.E-03
  IMPLANTE-2-COPY4-1         544        336   396.E-03
  IMPLANTE-2-COPY4-1         544        441   396.E-03
  IMPLANTE-2-COPY4-1         544        504   396.E-03
  IMPLANTE-2-COPY4-1         544        505   396.E-03
  IMPLANTE-2-COPY4-1         545        411   454.E-03
  IMPLANTE-2-COPY4-1         545        506   454.E-03
  IMPLANTE-2-COPY4-1         545        539   454.E-03
  IMPLANTE-2-COPY4-1         545        686   454.E-03
  IMPLANTE-2-COPY4-1         546        386   703.E-03
  IMPLANTE-2-COPY4-1         546        485   703.E-03
  IMPLANTE-2-COPY4-1         546        487   703.E-03
  IMPLANTE-2-COPY4-1         546        523   703.E-03
  IMPLANTE-2-COPY4-1         547        483   671.E-03
  IMPLANTE-2-COPY4-1         547        485   671.E-03
  IMPLANTE-2-COPY4-1         547        523   671.E-03
  IMPLANTE-2-COPY4-1         547        573   671.E-03
  IMPLANTE-2-COPY4-1         548        304         2.
  IMPLANTE-2-COPY4-1         548        370         2.
  IMPLANTE-2-COPY4-1         548        563         2.
  IMPLANTE-2-COPY4-1         548        591         2.
  IMPLANTE-2-COPY4-1         549        286         2.
  IMPLANTE-2-COPY4-1         549        459         2.
  IMPLANTE-2-COPY4-1         549        463         2.
  IMPLANTE-2-COPY4-1         549        525         2.
  IMPLANTE-2-COPY4-1         550        449         1.
  IMPLANTE-2-COPY4-1         550        481         1.
  IMPLANTE-2-COPY4-1         550        513         1.
  IMPLANTE-2-COPY4-1         550        566         1.
  IMPLANTE-2-COPY4-1         551        449   950.E-03
  IMPLANTE-2-COPY4-1         551        473   950.E-03
  IMPLANTE-2-COPY4-1         551        481   950.E-03
  IMPLANTE-2-COPY4-1         551        514   950.E-03
  IMPLANTE-2-COPY4-1         552        297         2.
  IMPLANTE-2-COPY4-1         552        370         2.
  IMPLANTE-2-COPY4-1         552        563         2.
  IMPLANTE-2-COPY4-1         552        568         2.
  IMPLANTE-2-COPY4-1         553        297         1.
  IMPLANTE-2-COPY4-1         553        513         1.
  IMPLANTE-2-COPY4-1         553        566         1.
  IMPLANTE-2-COPY4-1         553        568         1.
  IMPLANTE-2-COPY4-1         554        473   870.E-03
  IMPLANTE-2-COPY4-1         554        484   870.E-03
  IMPLANTE-2-COPY4-1         554        514   870.E-03
  IMPLANTE-2-COPY4-1         554        558   870.E-03
  IMPLANTE-2-COPY4-1         555        484   817.E-03
  IMPLANTE-2-COPY4-1         555        518   817.E-03
  IMPLANTE-2-COPY4-1         555        558   817.E-03
  IMPLANTE-2-COPY4-1         555        572   817.E-03
  IMPLANTE-2-COPY4-1         556        482   783.E-03
  IMPLANTE-2-COPY4-1         556        509   783.E-03
  IMPLANTE-2-COPY4-1         556        518   783.E-03
  IMPLANTE-2-COPY4-1         556        572   783.E-03
  IMPLANTE-2-COPY4-1         557        482   755.E-03
  IMPLANTE-2-COPY4-1         557        508   755.E-03
  IMPLANTE-2-COPY4-1         557        509   755.E-03
  IMPLANTE-2-COPY4-1         557        520   755.E-03
  IMPLANTE-2-COPY4-1         558        286         2.
  IMPLANTE-2-COPY4-1         558        455         2.
  IMPLANTE-2-COPY4-1         558        525         2.
  IMPLANTE-2-COPY4-1         558        564         2.
  IMPLANTE-2-COPY4-1         559        386   729.E-03
  IMPLANTE-2-COPY4-1         559        508   729.E-03
  IMPLANTE-2-COPY4-1         559        520   729.E-03
  IMPLANTE-2-COPY4-1         559        523   729.E-03
  IMPLANTE-2-COPY4-1         560        438         1.
  IMPLANTE-2-COPY4-1         560        455         1.
  IMPLANTE-2-COPY4-1         560        552         1.
  IMPLANTE-2-COPY4-1         560        564         1.
  IMPLANTE-2-COPY4-1         561        438         1.
  IMPLANTE-2-COPY4-1         561        472         1.
  IMPLANTE-2-COPY4-1         561        488         1.
  IMPLANTE-2-COPY4-1         561        552         1.
  IMPLANTE-2-COPY4-1         562        491   744.E-03
  IMPLANTE-2-COPY4-1         562        495   744.E-03
  IMPLANTE-2-COPY4-1         562        496   744.E-03
  IMPLANTE-2-COPY4-1         562        524   744.E-03
  IMPLANTE-2-COPY4-1         563        472   932.E-03
  IMPLANTE-2-COPY4-1         563        488   932.E-03
  IMPLANTE-2-COPY4-1         563        521   932.E-03
  IMPLANTE-2-COPY4-1         563        576   932.E-03
  IMPLANTE-2-COPY4-1         564        432   683.E-03
  IMPLANTE-2-COPY4-1         564        495   683.E-03
  IMPLANTE-2-COPY4-1         564        496   683.E-03
  IMPLANTE-2-COPY4-1         564        530   683.E-03
  IMPLANTE-2-COPY4-1         565        491   824.E-03
  IMPLANTE-2-COPY4-1         565        521   824.E-03
  IMPLANTE-2-COPY4-1         565        524   824.E-03
  IMPLANTE-2-COPY4-1         565        576   824.E-03
  IMPLANTE-2-COPY4-1         566        432   634.E-03
  IMPLANTE-2-COPY4-1         566        470   634.E-03
  IMPLANTE-2-COPY4-1         566        492   634.E-03
  IMPLANTE-2-COPY4-1         566        530   634.E-03
  IMPLANTE-2-COPY4-1         567        462   594.E-03
  IMPLANTE-2-COPY4-1         567        470   594.E-03
  IMPLANTE-2-COPY4-1         567        492   594.E-03
  IMPLANTE-2-COPY4-1         567        493   594.E-03
  IMPLANTE-2-COPY4-1         568        462   562.E-03
  IMPLANTE-2-COPY4-1         568        493   562.E-03
  IMPLANTE-2-COPY4-1         568        497   562.E-03
  IMPLANTE-2-COPY4-1         568        532   562.E-03
  IMPLANTE-2-COPY4-1         569        497   536.E-03
  IMPLANTE-2-COPY4-1         569        529   536.E-03
  IMPLANTE-2-COPY4-1         569        532   536.E-03
  IMPLANTE-2-COPY4-1         569        580   536.E-03
  IMPLANTE-2-COPY4-1         570        498   516.E-03
  IMPLANTE-2-COPY4-1         570        529   516.E-03
  IMPLANTE-2-COPY4-1         570        580   516.E-03
  IMPLANTE-2-COPY4-1         570        582   516.E-03
  IMPLANTE-2-COPY4-1         571        498   501.E-03
  IMPLANTE-2-COPY4-1         571        499   501.E-03
  IMPLANTE-2-COPY4-1         571        537   501.E-03
  IMPLANTE-2-COPY4-1         571        582   501.E-03
  IMPLANTE-2-COPY4-1         572        499   487.E-03
  IMPLANTE-2-COPY4-1         572        501   487.E-03
  IMPLANTE-2-COPY4-1         572        537   487.E-03
  IMPLANTE-2-COPY4-1         572        585   487.E-03
  IMPLANTE-2-COPY4-1         573        475   476.E-03
  IMPLANTE-2-COPY4-1         573        501   476.E-03
  IMPLANTE-2-COPY4-1         573        502   476.E-03
  IMPLANTE-2-COPY4-1         573        585   476.E-03
  IMPLANTE-2-COPY4-1         574        475   474.E-03
  IMPLANTE-2-COPY4-1         574        502   474.E-03
  IMPLANTE-2-COPY4-1         574        535   474.E-03
  IMPLANTE-2-COPY4-1         574        560   474.E-03
  IMPLANTE-2-COPY4-1         575        507   473.E-03
  IMPLANTE-2-COPY4-1         575        535   473.E-03
  IMPLANTE-2-COPY4-1         575        541   473.E-03
  IMPLANTE-2-COPY4-1         575        560   473.E-03
  IMPLANTE-2-COPY4-1         576        506   465.E-03
  IMPLANTE-2-COPY4-1         576        507   465.E-03
  IMPLANTE-2-COPY4-1         576        539   465.E-03
  IMPLANTE-2-COPY4-1         576        541   465.E-03
  IMPLANTE-2-COPY4-1         577        506   551.E-03
  IMPLANTE-2-COPY4-1         577        540   551.E-03
  IMPLANTE-2-COPY4-1         577        541   551.E-03
  IMPLANTE-2-COPY4-1         577        614   551.E-03
  IMPLANTE-2-COPY4-1         578        316   361.E-03
  IMPLANTE-2-COPY4-1         578        336   361.E-03
  IMPLANTE-2-COPY4-1         578        504   361.E-03
  IMPLANTE-2-COPY4-1         578        542   361.E-03
  IMPLANTE-2-COPY4-1         579        290         2.
  IMPLANTE-2-COPY4-1         579        292         2.
  IMPLANTE-2-COPY4-1         579        463         2.
  IMPLANTE-2-COPY4-1         579        589         2.
  IMPLANTE-2-COPY4-1         580        478         2.
  IMPLANTE-2-COPY4-1         580        479         2.
  IMPLANTE-2-COPY4-1         580        510         2.
  IMPLANTE-2-COPY4-1         580        628         2.
  IMPLANTE-2-COPY4-1         581        483   679.E-03
  IMPLANTE-2-COPY4-1         581        516   679.E-03
  IMPLANTE-2-COPY4-1         581        570   679.E-03
  IMPLANTE-2-COPY4-1         581        573   679.E-03
  IMPLANTE-2-COPY4-1         582        526   838.E-03
  IMPLANTE-2-COPY4-1         582        531   838.E-03
  IMPLANTE-2-COPY4-1         582        534   838.E-03
  IMPLANTE-2-COPY4-1         582        598   838.E-03
  IMPLANTE-2-COPY4-1         583        353   799.E-03
  IMPLANTE-2-COPY4-1         583        531   799.E-03
  IMPLANTE-2-COPY4-1         583        534   799.E-03
  IMPLANTE-2-COPY4-1         583        555   799.E-03
  IMPLANTE-2-COPY4-1         584        279   918.E-03
  IMPLANTE-2-COPY4-1         584        526   918.E-03
  IMPLANTE-2-COPY4-1         584        528   918.E-03
  IMPLANTE-2-COPY4-1         584        598   918.E-03
  IMPLANTE-2-COPY4-1         585        279         1.
  IMPLANTE-2-COPY4-1         585        489         1.
  IMPLANTE-2-COPY4-1         585        528         1.
  IMPLANTE-2-COPY4-1         585        545         1.
  IMPLANTE-2-COPY4-1         586        422   772.E-03
  IMPLANTE-2-COPY4-1         586        517   772.E-03
  IMPLANTE-2-COPY4-1         586        565   772.E-03
  IMPLANTE-2-COPY4-1         586        599   772.E-03
  IMPLANTE-2-COPY4-1         587        480   730.E-03
  IMPLANTE-2-COPY4-1         587        517   730.E-03
  IMPLANTE-2-COPY4-1         587        599   730.E-03
  IMPLANTE-2-COPY4-1         587        602   730.E-03
  IMPLANTE-2-COPY4-1         588        422   866.E-03
  IMPLANTE-2-COPY4-1         588        511   866.E-03
  IMPLANTE-2-COPY4-1         588        515   866.E-03
  IMPLANTE-2-COPY4-1         588        565   866.E-03
  IMPLANTE-2-COPY4-1         589        434         1.
  IMPLANTE-2-COPY4-1         589        547         1.
  IMPLANTE-2-COPY4-1         589        554         1.
  IMPLANTE-2-COPY4-1         589        594         1.
  IMPLANTE-2-COPY4-1         590        467   992.E-03
  IMPLANTE-2-COPY4-1         590        511   992.E-03
  IMPLANTE-2-COPY4-1         590        515   992.E-03
  IMPLANTE-2-COPY4-1         590        567   992.E-03
  IMPLANTE-2-COPY4-1         591        489         1.
  IMPLANTE-2-COPY4-1         591        522         1.
  IMPLANTE-2-COPY4-1         591        545         1.
  IMPLANTE-2-COPY4-1         591        593         1.
  IMPLANTE-2-COPY4-1         592        460         1.
  IMPLANTE-2-COPY4-1         592        468         1.
  IMPLANTE-2-COPY4-1         592        471         1.
  IMPLANTE-2-COPY4-1         592        553         1.
  IMPLANTE-2-COPY4-1         593        471         1.
  IMPLANTE-2-COPY4-1         593        547         1.
  IMPLANTE-2-COPY4-1         593        553         1.
  IMPLANTE-2-COPY4-1         593        554         1.
  IMPLANTE-2-COPY4-1         594        460         1.
  IMPLANTE-2-COPY4-1         594        467         1.
  IMPLANTE-2-COPY4-1         594        468         1.
  IMPLANTE-2-COPY4-1         594        567         1.
  IMPLANTE-2-COPY4-1         595        522         1.
  IMPLANTE-2-COPY4-1         595        546         1.
  IMPLANTE-2-COPY4-1         595        548         1.
  IMPLANTE-2-COPY4-1         595        593         1.
  IMPLANTE-2-COPY4-1         596        434         1.
  IMPLANTE-2-COPY4-1         596        546         1.
  IMPLANTE-2-COPY4-1         596        548         1.
  IMPLANTE-2-COPY4-1         596        594         1.
  IMPLANTE-2-COPY4-1         597        353   793.E-03
  IMPLANTE-2-COPY4-1         597        366   793.E-03
  IMPLANTE-2-COPY4-1         597        555   793.E-03
  IMPLANTE-2-COPY4-1         597        584   793.E-03
  IMPLANTE-2-COPY4-1         598        536   746.E-03
  IMPLANTE-2-COPY4-1         598        538   746.E-03
  IMPLANTE-2-COPY4-1         598        588   746.E-03
  IMPLANTE-2-COPY4-1         598        606   746.E-03
  IMPLANTE-2-COPY4-1         599        366   787.E-03
  IMPLANTE-2-COPY4-1         599        536   787.E-03
  IMPLANTE-2-COPY4-1         599        584   787.E-03
  IMPLANTE-2-COPY4-1         599        606   787.E-03
  IMPLANTE-2-COPY4-1         600        480   707.E-03
  IMPLANTE-2-COPY4-1         600        516   707.E-03
  IMPLANTE-2-COPY4-1         600        570   707.E-03
  IMPLANTE-2-COPY4-1         600        602   707.E-03
  IMPLANTE-2-COPY4-1         601        292         3.
  IMPLANTE-2-COPY4-1         601        361         3.
  IMPLANTE-2-COPY4-1         601        559         3.
  IMPLANTE-2-COPY4-1         601        590         3.
  IMPLANTE-2-COPY4-1         602        538   657.E-03
  IMPLANTE-2-COPY4-1         602        540   657.E-03
  IMPLANTE-2-COPY4-1         602        588   657.E-03
  IMPLANTE-2-COPY4-1         602        614   657.E-03
  IMPLANTE-2-COPY4-1         603        303         3.
  IMPLANTE-2-COPY4-1         603        305         3.
  IMPLANTE-2-COPY4-1         603        479         3.
  IMPLANTE-2-COPY4-1         603        561         3.
  IMPLANTE-2-COPY4-1         604        476         4.
  IMPLANTE-2-COPY4-1         604        559         4.
  IMPLANTE-2-COPY4-1         604        562         4.
  IMPLANTE-2-COPY4-1         604        608         4.
  IMPLANTE-2-COPY4-1         605        361         4.
  IMPLANTE-2-COPY4-1         605        387         4.
  IMPLANTE-2-COPY4-1         605        559         4.
  IMPLANTE-2-COPY4-1         605        562         4.
  IMPLANTE-2-COPY4-1         606        459         2.
  IMPLANTE-2-COPY4-1         606        525         2.
  IMPLANTE-2-COPY4-1         606        615         2.
  IMPLANTE-2-COPY4-1         606        617         2.
  IMPLANTE-2-COPY4-1         607        481   948.E-03
  IMPLANTE-2-COPY4-1         607        514   948.E-03
  IMPLANTE-2-COPY4-1         607        519   948.E-03
  IMPLANTE-2-COPY4-1         607        603   948.E-03
  IMPLANTE-2-COPY4-1         608        421         1.
  IMPLANTE-2-COPY4-1         608        481         1.
  IMPLANTE-2-COPY4-1         608        519         1.
  IMPLANTE-2-COPY4-1         608        566         1.
  IMPLANTE-2-COPY4-1         609        421         1.
  IMPLANTE-2-COPY4-1         609        566         1.
  IMPLANTE-2-COPY4-1         609        568         1.
  IMPLANTE-2-COPY4-1         609        651         1.
  IMPLANTE-2-COPY4-1         610        514   868.E-03
  IMPLANTE-2-COPY4-1         610        558   868.E-03
  IMPLANTE-2-COPY4-1         610        603   868.E-03
  IMPLANTE-2-COPY4-1         610        613   868.E-03
  IMPLANTE-2-COPY4-1         611        558   826.E-03
  IMPLANTE-2-COPY4-1         611        572   826.E-03
  IMPLANTE-2-COPY4-1         611        613   826.E-03
  IMPLANTE-2-COPY4-1         612        482   796.E-03
  IMPLANTE-2-COPY4-1         612        572   796.E-03
  IMPLANTE-2-COPY4-1         612        609   796.E-03
  IMPLANTE-2-COPY4-1         612        613   796.E-03
  IMPLANTE-2-COPY4-1         613        525         1.
  IMPLANTE-2-COPY4-1         613        564         1.
  IMPLANTE-2-COPY4-1         613        617         1.
  IMPLANTE-2-COPY4-1         613        689         1.
  IMPLANTE-2-COPY4-1         614        491   823.E-03
  IMPLANTE-2-COPY4-1         614        496   823.E-03
  IMPLANTE-2-COPY4-1         614        574   823.E-03
  IMPLANTE-2-COPY4-1         614        620   823.E-03
  IMPLANTE-2-COPY4-1         615        512         1.
  IMPLANTE-2-COPY4-1         615        552         1.
  IMPLANTE-2-COPY4-1         615        564         1.
  IMPLANTE-2-COPY4-1         615        689         1.
  IMPLANTE-2-COPY4-1         616        496   761.E-03
  IMPLANTE-2-COPY4-1         616        530   761.E-03
  IMPLANTE-2-COPY4-1         616        620   761.E-03
  IMPLANTE-2-COPY4-1         616        691   761.E-03
  IMPLANTE-2-COPY4-1         617        472         1.
  IMPLANTE-2-COPY4-1         617        512         1.
  IMPLANTE-2-COPY4-1         617        552         1.
  IMPLANTE-2-COPY4-1         617        575         1.
  IMPLANTE-2-COPY4-1         618        491   898.E-03
  IMPLANTE-2-COPY4-1         618        574   898.E-03
  IMPLANTE-2-COPY4-1         618        576   898.E-03
  IMPLANTE-2-COPY4-1         618        577   898.E-03
  IMPLANTE-2-COPY4-1         619        482   756.E-03
  IMPLANTE-2-COPY4-1         619        520   756.E-03
  IMPLANTE-2-COPY4-1         619        557   756.E-03
  IMPLANTE-2-COPY4-1         619        609   756.E-03
  IMPLANTE-2-COPY4-1         620        472   998.E-03
  IMPLANTE-2-COPY4-1         620        575   998.E-03
  IMPLANTE-2-COPY4-1         620        576   998.E-03
  IMPLANTE-2-COPY4-1         620        577   998.E-03
  IMPLANTE-2-COPY4-1         621        520   715.E-03
  IMPLANTE-2-COPY4-1         621        523   715.E-03
  IMPLANTE-2-COPY4-1         621        557   715.E-03
  IMPLANTE-2-COPY4-1         621        573   715.E-03
  IMPLANTE-2-COPY4-1         622        492   707.E-03
  IMPLANTE-2-COPY4-1         622        527   707.E-03
  IMPLANTE-2-COPY4-1         622        530   707.E-03
  IMPLANTE-2-COPY4-1         622        691   707.E-03
  IMPLANTE-2-COPY4-1         623        462   660.E-03
  IMPLANTE-2-COPY4-1         623        492   660.E-03
  IMPLANTE-2-COPY4-1         623        527   660.E-03
  IMPLANTE-2-COPY4-1         623        623   660.E-03
  IMPLANTE-2-COPY4-1         624        462   620.E-03
  IMPLANTE-2-COPY4-1         624        532   620.E-03
  IMPLANTE-2-COPY4-1         624        605   620.E-03
  IMPLANTE-2-COPY4-1         624        623   620.E-03
  IMPLANTE-2-COPY4-1         625        532   589.E-03
  IMPLANTE-2-COPY4-1         625        580   589.E-03
  IMPLANTE-2-COPY4-1         625        605   589.E-03
  IMPLANTE-2-COPY4-1         625        692   589.E-03
  IMPLANTE-2-COPY4-1         626        537   554.E-03
  IMPLANTE-2-COPY4-1         626        556   554.E-03
  IMPLANTE-2-COPY4-1         626        582   554.E-03
  IMPLANTE-2-COPY4-1         626        586   554.E-03
  IMPLANTE-2-COPY4-1         627        556   567.E-03
  IMPLANTE-2-COPY4-1         627        580   567.E-03
  IMPLANTE-2-COPY4-1         627        582   567.E-03
  IMPLANTE-2-COPY4-1         627        692   567.E-03
  IMPLANTE-2-COPY4-1         628        475   516.E-03
  IMPLANTE-2-COPY4-1         628        585   516.E-03
  IMPLANTE-2-COPY4-1         628        627   516.E-03
  IMPLANTE-2-COPY4-1         629        475   534.E-03
  IMPLANTE-2-COPY4-1         629        503   534.E-03
  IMPLANTE-2-COPY4-1         629        560   534.E-03
  IMPLANTE-2-COPY4-1         629        627   534.E-03
  IMPLANTE-2-COPY4-1         630        479         3.
  IMPLANTE-2-COPY4-1         630        561         3.
  IMPLANTE-2-COPY4-1         630        628         3.
  IMPLANTE-2-COPY4-1         630        652         3.
  IMPLANTE-2-COPY4-1         631        477         3.
  IMPLANTE-2-COPY4-1         631        590         3.
  IMPLANTE-2-COPY4-1         631        630         3.
  IMPLANTE-2-COPY4-1         631        646         3.
  IMPLANTE-2-COPY4-1         632        477         4.
  IMPLANTE-2-COPY4-1         632        559         4.
  IMPLANTE-2-COPY4-1         632        590         4.
  IMPLANTE-2-COPY4-1         632        608         4.
  IMPLANTE-2-COPY4-1         633        510         2.
  IMPLANTE-2-COPY4-1         633        549         2.
  IMPLANTE-2-COPY4-1         633        591         2.
  IMPLANTE-2-COPY4-1         633        628         2.
  IMPLANTE-2-COPY4-1         634        489         1.
  IMPLANTE-2-COPY4-1         634        528         1.
  IMPLANTE-2-COPY4-1         634        578         1.
  IMPLANTE-2-COPY4-1         634        595         1.
  IMPLANTE-2-COPY4-1         635        489         1.
  IMPLANTE-2-COPY4-1         635        593         1.
  IMPLANTE-2-COPY4-1         635        595         1.
  IMPLANTE-2-COPY4-1         635        631         1.
  IMPLANTE-2-COPY4-1         636        460         1.
  IMPLANTE-2-COPY4-1         636        550         1.
  IMPLANTE-2-COPY4-1         636        567         1.
  IMPLANTE-2-COPY4-1         636        616         1.
  IMPLANTE-2-COPY4-1         637        515         1.
  IMPLANTE-2-COPY4-1         637        567         1.
  IMPLANTE-2-COPY4-1         637        616         1.
  IMPLANTE-2-COPY4-1         637        618         1.
  IMPLANTE-2-COPY4-1         638        528   940.E-03
  IMPLANTE-2-COPY4-1         638        578   940.E-03
  IMPLANTE-2-COPY4-1         638        579   940.E-03
  IMPLANTE-2-COPY4-1         638        598   940.E-03
  IMPLANTE-2-COPY4-1         639        515   933.E-03
  IMPLANTE-2-COPY4-1         639        565   933.E-03
  IMPLANTE-2-COPY4-1         639        569   933.E-03
  IMPLANTE-2-COPY4-1         639        618   933.E-03
  IMPLANTE-2-COPY4-1         640        460         1.
  IMPLANTE-2-COPY4-1         640        550         1.
  IMPLANTE-2-COPY4-1         640        553         1.
  IMPLANTE-2-COPY4-1         640        601         1.
  IMPLANTE-2-COPY4-1         641        553         1.
  IMPLANTE-2-COPY4-1         641        554         1.
  IMPLANTE-2-COPY4-1         641        601         1.
  IMPLANTE-2-COPY4-1         641        607         1.
  IMPLANTE-2-COPY4-1         642        565   848.E-03
  IMPLANTE-2-COPY4-1         642        569   848.E-03
  IMPLANTE-2-COPY4-1         642        599   848.E-03
  IMPLANTE-2-COPY4-1         642        619   848.E-03
  IMPLANTE-2-COPY4-1         643        546         1.
  IMPLANTE-2-COPY4-1         643        593         1.
  IMPLANTE-2-COPY4-1         643        631         1.
  IMPLANTE-2-COPY4-1         643        634         1.
  IMPLANTE-2-COPY4-1         644        534   864.E-03
  IMPLANTE-2-COPY4-1         644        579   864.E-03
  IMPLANTE-2-COPY4-1         644        598   864.E-03
  IMPLANTE-2-COPY4-1         644        624   864.E-03
  IMPLANTE-2-COPY4-1         645        534   812.E-03
  IMPLANTE-2-COPY4-1         645        555   812.E-03
  IMPLANTE-2-COPY4-1         645        624   812.E-03
  IMPLANTE-2-COPY4-1         645        625   812.E-03
  IMPLANTE-2-COPY4-1         646        587   701.E-03
  IMPLANTE-2-COPY4-1         646        588   701.E-03
  IMPLANTE-2-COPY4-1         646        606   701.E-03
  IMPLANTE-2-COPY4-1         646        611   701.E-03
  IMPLANTE-2-COPY4-1         647        554         1.
  IMPLANTE-2-COPY4-1         647        594         1.
  IMPLANTE-2-COPY4-1         647        604         1.
  IMPLANTE-2-COPY4-1         647        607         1.
  IMPLANTE-2-COPY4-1         648        546         1.
  IMPLANTE-2-COPY4-1         648        594         1.
  IMPLANTE-2-COPY4-1         648        604         1.
  IMPLANTE-2-COPY4-1         648        634         1.
  IMPLANTE-2-COPY4-1         649        303         4.
  IMPLANTE-2-COPY4-1         649        477         4.
  IMPLANTE-2-COPY4-1         649        561         4.
  IMPLANTE-2-COPY4-1         649        608         4.
  IMPLANTE-2-COPY4-1         650        557   710.E-03
  IMPLANTE-2-COPY4-1         650        570   710.E-03
  IMPLANTE-2-COPY4-1         650        573   710.E-03
  IMPLANTE-2-COPY4-1         651        555   779.E-03
  IMPLANTE-2-COPY4-1         651        584   779.E-03
  IMPLANTE-2-COPY4-1         651        625   779.E-03
  IMPLANTE-2-COPY4-1         651        626   779.E-03
  IMPLANTE-2-COPY4-1         652        584   749.E-03
  IMPLANTE-2-COPY4-1         652        606   749.E-03
  IMPLANTE-2-COPY4-1         652        611   749.E-03
  IMPLANTE-2-COPY4-1         652        626   749.E-03
  IMPLANTE-2-COPY4-1         653        557   757.E-03
  IMPLANTE-2-COPY4-1         653        570   757.E-03
  IMPLANTE-2-COPY4-1         653        571   757.E-03
  IMPLANTE-2-COPY4-1         653        602   757.E-03
  IMPLANTE-2-COPY4-1         653        609   757.E-03
  IMPLANTE-2-COPY4-1         654        503   627.E-03
  IMPLANTE-2-COPY4-1         654        587   627.E-03
  IMPLANTE-2-COPY4-1         654        588   627.E-03
  IMPLANTE-2-COPY4-1         654        614   627.E-03
  IMPLANTE-2-COPY4-1         655        503   546.E-03
  IMPLANTE-2-COPY4-1         655        541   546.E-03
  IMPLANTE-2-COPY4-1         655        560   546.E-03
  IMPLANTE-2-COPY4-1         655        614   546.E-03
  IMPLANTE-2-COPY4-1         656        459         2.
  IMPLANTE-2-COPY4-1         656        463         2.
  IMPLANTE-2-COPY4-1         656        589         2.
  IMPLANTE-2-COPY4-1         656        647         2.
  IMPLANTE-2-COPY4-1         657        421         1.
  IMPLANTE-2-COPY4-1         657        651         1.
  IMPLANTE-2-COPY4-1         657        655         1.
  IMPLANTE-2-COPY4-1         657        684         1.
  IMPLANTE-2-COPY4-1         658        615         1.
  IMPLANTE-2-COPY4-1         658        617         1.
  IMPLANTE-2-COPY4-1         658        665         1.
  IMPLANTE-2-COPY4-1         658        666         1.
  IMPLANTE-2-COPY4-1         659        421         1.
  IMPLANTE-2-COPY4-1         659        519         1.
  IMPLANTE-2-COPY4-1         659        639         1.
  IMPLANTE-2-COPY4-1         659        684         1.
  IMPLANTE-2-COPY4-1         660        519   897.E-03
  IMPLANTE-2-COPY4-1         660        571   897.E-03
  IMPLANTE-2-COPY4-1         660        603   897.E-03
  IMPLANTE-2-COPY4-1         660        619   897.E-03
  IMPLANTE-2-COPY4-1         660        639   897.E-03
  IMPLANTE-2-COPY4-1         661        574   889.E-03
  IMPLANTE-2-COPY4-1         661        620   889.E-03
  IMPLANTE-2-COPY4-1         661        658   889.E-03
  IMPLANTE-2-COPY4-1         661        690   889.E-03
  IMPLANTE-2-COPY4-1         662        512         1.
  IMPLANTE-2-COPY4-1         662        621         1.
  IMPLANTE-2-COPY4-1         662        680         1.
  IMPLANTE-2-COPY4-1         662        689         1.
  IMPLANTE-2-COPY4-1         663        575         1.
  IMPLANTE-2-COPY4-1         663        577         1.
  IMPLANTE-2-COPY4-1         663        622         1.
  IMPLANTE-2-COPY4-1         663        681         1.
  IMPLANTE-2-COPY4-1         664        527   765.E-03
  IMPLANTE-2-COPY4-1         664        597   765.E-03
  IMPLANTE-2-COPY4-1         664        678   765.E-03
  IMPLANTE-2-COPY4-1         664        691   765.E-03
  IMPLANTE-2-COPY4-1         665        581   667.E-03
  IMPLANTE-2-COPY4-1         665        605   667.E-03
  IMPLANTE-2-COPY4-1         665        623   667.E-03
  IMPLANTE-2-COPY4-1         665        695   667.E-03
  IMPLANTE-2-COPY4-1         666        556   610.E-03
  IMPLANTE-2-COPY4-1         666        612   610.E-03
  IMPLANTE-2-COPY4-1         666        664   610.E-03
  IMPLANTE-2-COPY4-1         666        692   610.E-03
  IMPLANTE-2-COPY4-1         667        544   604.E-03
  IMPLANTE-2-COPY4-1         667        556   604.E-03
  IMPLANTE-2-COPY4-1         667        586   604.E-03
  IMPLANTE-2-COPY4-1         667        664   604.E-03
  IMPLANTE-2-COPY4-1         668        549         2.
  IMPLANTE-2-COPY4-1         668        563         2.
  IMPLANTE-2-COPY4-1         668        591         2.
  IMPLANTE-2-COPY4-1         668        638         2.
  IMPLANTE-2-COPY4-1         669        459         2.
  IMPLANTE-2-COPY4-1         669        615         2.
  IMPLANTE-2-COPY4-1         669        647         2.
  IMPLANTE-2-COPY4-1         669        682         2.
  IMPLANTE-2-COPY4-1         669        687         2.
  IMPLANTE-2-COPY4-1         670        551         3.
  IMPLANTE-2-COPY4-1         670        592         3.
  IMPLANTE-2-COPY4-1         670        630         3.
  IMPLANTE-2-COPY4-1         670        652         3.
  IMPLANTE-2-COPY4-1         671        490         1.
  IMPLANTE-2-COPY4-1         671        578         1.
  IMPLANTE-2-COPY4-1         671        583         1.
  IMPLANTE-2-COPY4-1         671        595         1.
  IMPLANTE-2-COPY4-1         672        596         1.
  IMPLANTE-2-COPY4-1         672        616         1.
  IMPLANTE-2-COPY4-1         672        618         1.
  IMPLANTE-2-COPY4-1         672        632         1.
  IMPLANTE-2-COPY4-1         673        578   967.E-03
  IMPLANTE-2-COPY4-1         673        579   967.E-03
  IMPLANTE-2-COPY4-1         673        583   967.E-03
  IMPLANTE-2-COPY4-1         673        640   967.E-03
  IMPLANTE-2-COPY4-1         674        550         1.
  IMPLANTE-2-COPY4-1         674        616         1.
  IMPLANTE-2-COPY4-1         674        632         1.
  IMPLANTE-2-COPY4-1         674        650         1.
  IMPLANTE-2-COPY4-1         675        490         1.
  IMPLANTE-2-COPY4-1         675        595         1.
  IMPLANTE-2-COPY4-1         675        631         1.
  IMPLANTE-2-COPY4-1         675        641         1.
  IMPLANTE-2-COPY4-1         676        543         1.
  IMPLANTE-2-COPY4-1         676        601         1.
  IMPLANTE-2-COPY4-1         676        607         1.
  IMPLANTE-2-COPY4-1         676        637         1.
  IMPLANTE-2-COPY4-1         676        642         1.
  IMPLANTE-2-COPY4-1         677        550         1.
  IMPLANTE-2-COPY4-1         677        601         1.
  IMPLANTE-2-COPY4-1         677        637         1.
  IMPLANTE-2-COPY4-1         677        650         1.
  IMPLANTE-2-COPY4-1         678        569         1.
  IMPLANTE-2-COPY4-1         678        596         1.
  IMPLANTE-2-COPY4-1         678        600         1.
  IMPLANTE-2-COPY4-1         678        618         1.
  IMPLANTE-2-COPY4-1         679        579   884.E-03
  IMPLANTE-2-COPY4-1         679        610   884.E-03
  IMPLANTE-2-COPY4-1         679        624   884.E-03
  IMPLANTE-2-COPY4-1         679        640   884.E-03
  IMPLANTE-2-COPY4-1         680        610   816.E-03
  IMPLANTE-2-COPY4-1         680        624   816.E-03
  IMPLANTE-2-COPY4-1         680        625   816.E-03
  IMPLANTE-2-COPY4-1         680        644   816.E-03
  IMPLANTE-2-COPY4-1         681        604         1.
  IMPLANTE-2-COPY4-1         681        607         1.
  IMPLANTE-2-COPY4-1         681        642         1.
  IMPLANTE-2-COPY4-1         681        657         1.
  IMPLANTE-2-COPY4-1         682        631         1.
  IMPLANTE-2-COPY4-1         682        634         1.
  IMPLANTE-2-COPY4-1         682        641         1.
  IMPLANTE-2-COPY4-1         682        643         1.
  IMPLANTE-2-COPY4-1         682        661         1.
  IMPLANTE-2-COPY4-1         683        604         1.
  IMPLANTE-2-COPY4-1         683        634         1.
  IMPLANTE-2-COPY4-1         683        643         1.
  IMPLANTE-2-COPY4-1         683        657         1.
  IMPLANTE-2-COPY4-1         684        625   765.E-03
  IMPLANTE-2-COPY4-1         684        626   765.E-03
  IMPLANTE-2-COPY4-1         684        644   765.E-03
  IMPLANTE-2-COPY4-1         684        663   765.E-03
  IMPLANTE-2-COPY4-1         685        544   669.E-03
  IMPLANTE-2-COPY4-1         685        587   669.E-03
  IMPLANTE-2-COPY4-1         685        611   669.E-03
  IMPLANTE-2-COPY4-1         685        645   669.E-03
  IMPLANTE-2-COPY4-1         686        611   721.E-03
  IMPLANTE-2-COPY4-1         686        626   721.E-03
  IMPLANTE-2-COPY4-1         686        645   721.E-03
  IMPLANTE-2-COPY4-1         686        663   721.E-03
  IMPLANTE-2-COPY4-1         687        503   596.E-03
  IMPLANTE-2-COPY4-1         687        544   596.E-03
  IMPLANTE-2-COPY4-1         687        586   596.E-03
  IMPLANTE-2-COPY4-1         687        587   596.E-03
  IMPLANTE-2-COPY4-1         687        627   596.E-03
  IMPLANTE-2-COPY4-1         688        589         2.
  IMPLANTE-2-COPY4-1         688        646         2.
  IMPLANTE-2-COPY4-1         688        647         2.
  IMPLANTE-2-COPY4-1         688        649         2.
  IMPLANTE-2-COPY4-1         689        615         2.
  IMPLANTE-2-COPY4-1         689        665         2.
  IMPLANTE-2-COPY4-1         689        667         2.
  IMPLANTE-2-COPY4-1         689        687         2.
  IMPLANTE-2-COPY4-1         690        549         2.
  IMPLANTE-2-COPY4-1         690        592         2.
  IMPLANTE-2-COPY4-1         690        638         2.
  IMPLANTE-2-COPY4-1         690        669         2.
  IMPLANTE-2-COPY4-1         691        563         2.
  IMPLANTE-2-COPY4-1         691        568         2.
  IMPLANTE-2-COPY4-1         691        638         2.
  IMPLANTE-2-COPY4-1         691        651         2.
  IMPLANTE-2-COPY4-1         691        668         2.
  IMPLANTE-2-COPY4-1         692        647         2.
  IMPLANTE-2-COPY4-1         692        649         2.
  IMPLANTE-2-COPY4-1         692        670         2.
  IMPLANTE-2-COPY4-1         692        682         2.
  IMPLANTE-2-COPY4-1         693        551         3.
  IMPLANTE-2-COPY4-1         693        630         3.
  IMPLANTE-2-COPY4-1         693        646         3.
  IMPLANTE-2-COPY4-1         693        649         3.
  IMPLANTE-2-COPY4-1         694        490         1.
  IMPLANTE-2-COPY4-1         694        533         1.
  IMPLANTE-2-COPY4-1         694        583         1.
  IMPLANTE-2-COPY4-1         694        648         1.
  IMPLANTE-2-COPY4-1         695        490         1.
  IMPLANTE-2-COPY4-1         695        635         1.
  IMPLANTE-2-COPY4-1         695        641         1.
  IMPLANTE-2-COPY4-1         695        648         1.
  IMPLANTE-2-COPY4-1         696        596         1.
  IMPLANTE-2-COPY4-1         696        629         1.
  IMPLANTE-2-COPY4-1         696        632         1.
  IMPLANTE-2-COPY4-1         696        655         1.
  IMPLANTE-2-COPY4-1         697        543         1.
  IMPLANTE-2-COPY4-1         697        637         1.
  IMPLANTE-2-COPY4-1         697        656         1.
  IMPLANTE-2-COPY4-1         697        673         1.
  IMPLANTE-2-COPY4-1         698        533         1.
  IMPLANTE-2-COPY4-1         698        583         1.
  IMPLANTE-2-COPY4-1         698        633         1.
  IMPLANTE-2-COPY4-1         698        640         1.
  IMPLANTE-2-COPY4-1         699        629         1.
  IMPLANTE-2-COPY4-1         699        637         1.
  IMPLANTE-2-COPY4-1         699        650         1.
  IMPLANTE-2-COPY4-1         699        656         1.
  IMPLANTE-2-COPY4-1         700        543         2.
  IMPLANTE-2-COPY4-1         700        642         2.
  IMPLANTE-2-COPY4-1         700        660         2.
  IMPLANTE-2-COPY4-1         700        677         2.
  IMPLANTE-2-COPY4-1         701        635         1.
  IMPLANTE-2-COPY4-1         701        641         1.
  IMPLANTE-2-COPY4-1         701        661         1.
  IMPLANTE-2-COPY4-1         702        597   895.E-03
  IMPLANTE-2-COPY4-1         702        610   895.E-03
  IMPLANTE-2-COPY4-1         702        633   895.E-03
  IMPLANTE-2-COPY4-1         702        640   895.E-03
  IMPLANTE-2-COPY4-1         702        658   895.E-03
  IMPLANTE-2-COPY4-1         703        642         1.
  IMPLANTE-2-COPY4-1         703        657         1.
  IMPLANTE-2-COPY4-1         703        660         1.
  IMPLANTE-2-COPY4-1         703        676         1.
  IMPLANTE-2-COPY4-1         703        688         1.
  IMPLANTE-2-COPY4-1         704        643         1.
  IMPLANTE-2-COPY4-1         704        659         1.
  IMPLANTE-2-COPY4-1         704        661         1.
  IMPLANTE-2-COPY4-1         704        676         1.
  IMPLANTE-2-COPY4-1         705        597   794.E-03
  IMPLANTE-2-COPY4-1         705        610   794.E-03
  IMPLANTE-2-COPY4-1         705        644   794.E-03
  IMPLANTE-2-COPY4-1         705        678   794.E-03
  IMPLANTE-2-COPY4-1         705        696   794.E-03
  IMPLANTE-2-COPY4-1         706        645   698.E-03
  IMPLANTE-2-COPY4-1         706        662   698.E-03
  IMPLANTE-2-COPY4-1         706        663   698.E-03
  IMPLANTE-2-COPY4-1         706        697   698.E-03
  IMPLANTE-2-COPY4-1         707        544   652.E-03
  IMPLANTE-2-COPY4-1         707        645   652.E-03
  IMPLANTE-2-COPY4-1         707        662   652.E-03
  IMPLANTE-2-COPY4-1         707        664   652.E-03
  IMPLANTE-2-COPY4-1         708        659         1.
  IMPLANTE-2-COPY4-1         708        665         1.
  IMPLANTE-2-COPY4-1         708        667         1.
  IMPLANTE-2-COPY4-1         708        672         1.
  IMPLANTE-2-COPY4-1         709        636         2.
  IMPLANTE-2-COPY4-1         709        670         2.
  IMPLANTE-2-COPY4-1         709        682         2.
  IMPLANTE-2-COPY4-1         709        683         2.
  IMPLANTE-2-COPY4-1         710        629         1.
  IMPLANTE-2-COPY4-1         710        651         1.
  IMPLANTE-2-COPY4-1         710        655         1.
  IMPLANTE-2-COPY4-1         710        656         1.
  IMPLANTE-2-COPY4-1         710        668         1.
  IMPLANTE-2-COPY4-1         711        638         2.
  IMPLANTE-2-COPY4-1         711        668         2.
  IMPLANTE-2-COPY4-1         711        669         2.
  IMPLANTE-2-COPY4-1         711        674         2.
  IMPLANTE-2-COPY4-1         712        551         2.
  IMPLANTE-2-COPY4-1         712        592         2.
  IMPLANTE-2-COPY4-1         712        669         2.
  IMPLANTE-2-COPY4-1         712        679         2.
  IMPLANTE-2-COPY4-1         713        533         1.
  IMPLANTE-2-COPY4-1         713        648         1.
  IMPLANTE-2-COPY4-1         713        653         1.
  IMPLANTE-2-COPY4-1         713        694         1.
  IMPLANTE-2-COPY4-1         714        635         1.
  IMPLANTE-2-COPY4-1         714        648         1.
  IMPLANTE-2-COPY4-1         714        653         1.
  IMPLANTE-2-COPY4-1         714        672         1.
  IMPLANTE-2-COPY4-1         715        656         2.
  IMPLANTE-2-COPY4-1         715        668         2.
  IMPLANTE-2-COPY4-1         715        673         2.
  IMPLANTE-2-COPY4-1         715        674         2.
  IMPLANTE-2-COPY4-1         716        660         2.
  IMPLANTE-2-COPY4-1         716        675         2.
  IMPLANTE-2-COPY4-1         716        677         2.
  IMPLANTE-2-COPY4-1         716        683         2.
  IMPLANTE-2-COPY4-1         717        633   960.E-03
  IMPLANTE-2-COPY4-1         717        658   960.E-03
  IMPLANTE-2-COPY4-1         717        671   960.E-03
  IMPLANTE-2-COPY4-1         717        690   960.E-03
  IMPLANTE-2-COPY4-1         718        635         1.
  IMPLANTE-2-COPY4-1         718        659         1.
  IMPLANTE-2-COPY4-1         718        661         1.
  IMPLANTE-2-COPY4-1         718        672         1.
  IMPLANTE-2-COPY4-1         719        659         1.
  IMPLANTE-2-COPY4-1         719        667         1.
  IMPLANTE-2-COPY4-1         719        676         1.
  IMPLANTE-2-COPY4-1         719        688         1.
  IMPLANTE-2-COPY4-1         720        581   739.E-03
  IMPLANTE-2-COPY4-1         720        678   739.E-03
  IMPLANTE-2-COPY4-1         720        696   739.E-03
  IMPLANTE-2-COPY4-1         721        667         2.
  IMPLANTE-2-COPY4-1         721        675         2.
  IMPLANTE-2-COPY4-1         721        687         2.
  IMPLANTE-2-COPY4-1         721        688         2.
  IMPLANTE-2-COPY4-1         722        636         2.
  IMPLANTE-2-COPY4-1         722        670         2.
  IMPLANTE-2-COPY4-1         722        679         2.
  IMPLANTE-2-COPY4-1         723        636         2.
  IMPLANTE-2-COPY4-1         723        654         2.
  IMPLANTE-2-COPY4-1         723        669         2.
  IMPLANTE-2-COPY4-1         723        674         2.
  IMPLANTE-2-COPY4-1         723        679         2.
  IMPLANTE-2-COPY4-1         724        551         2.
  IMPLANTE-2-COPY4-1         724        649         2.
  IMPLANTE-2-COPY4-1         724        670         2.
  IMPLANTE-2-COPY4-1         724        679         2.
  IMPLANTE-2-COPY4-1         725        653         1.
  IMPLANTE-2-COPY4-1         725        665         1.
  IMPLANTE-2-COPY4-1         725        666         1.
  IMPLANTE-2-COPY4-1         725        672         1.
  IMPLANTE-2-COPY4-1         726        622         1.
  IMPLANTE-2-COPY4-1         726        680         1.
  IMPLANTE-2-COPY4-1         726        693         1.
  IMPLANTE-2-COPY4-1         727        622         1.
  IMPLANTE-2-COPY4-1         727        671         1.
  IMPLANTE-2-COPY4-1         727        681         1.
  IMPLANTE-2-COPY4-1         727        693         1.
  IMPLANTE-2-COPY4-1         728        543         2.
  IMPLANTE-2-COPY4-1         728        654         2.
  IMPLANTE-2-COPY4-1         728        673         2.
  IMPLANTE-2-COPY4-1         728        677         2.
  IMPLANTE-2-COPY4-1         729        654         2.
  IMPLANTE-2-COPY4-1         729        673         2.
  IMPLANTE-2-COPY4-1         729        674         2.
  IMPLANTE-2-COPY4-1         730        636         2.
  IMPLANTE-2-COPY4-1         730        654         2.
  IMPLANTE-2-COPY4-1         730        677         2.
  IMPLANTE-2-COPY4-1         730        683         2.
  IMPLANTE-2-COPY4-1         731        621         1.
  IMPLANTE-2-COPY4-1         731        653         1.
  IMPLANTE-2-COPY4-1         731        666         1.
  IMPLANTE-2-COPY4-1         731        694         1.
  IMPLANTE-2-COPY4-1         732        596         1.
  IMPLANTE-2-COPY4-1         732        600         1.
  IMPLANTE-2-COPY4-1         732        655         1.
  IMPLANTE-2-COPY4-1         732        684         1.
  IMPLANTE-2-COPY4-1         733        411   424.E-03
  IMPLANTE-2-COPY4-1         733        441   424.E-03
  IMPLANTE-2-COPY4-1         733        505   424.E-03
  IMPLANTE-2-COPY4-1         733        685   424.E-03
  IMPLANTE-2-COPY4-1         734        302   888.E-03
  IMPLANTE-2-COPY4-1         734        312   888.E-03
  IMPLANTE-2-COPY4-1         734        376   888.E-03
  IMPLANTE-2-COPY4-1         734        383   888.E-03
  IMPLANTE-2-COPY4-1         735        376   825.E-03
  IMPLANTE-2-COPY4-1         735        383   825.E-03
  IMPLANTE-2-COPY4-1         735        384   825.E-03
  IMPLANTE-2-COPY4-1         735        447   825.E-03
  IMPLANTE-2-COPY4-1         736        477         3.
  IMPLANTE-2-COPY4-1         736        561         3.
  IMPLANTE-2-COPY4-1         736        630         3.
  IMPLANTE-2-COPY4-1         736        652         3.
  IMPLANTE-2-COPY4-1         737        292         3.
  IMPLANTE-2-COPY4-1         737        589         3.
  IMPLANTE-2-COPY4-1         737        590         3.
  IMPLANTE-2-COPY4-1         737        646         3.
  IMPLANTE-2-COPY4-1         738        411   447.E-03
  IMPLANTE-2-COPY4-1         738        685   447.E-03
  IMPLANTE-2-COPY4-1         738        686   447.E-03
  IMPLANTE-2-COPY4-1         739        549         2.
  IMPLANTE-2-COPY4-1         739        592         2.
  IMPLANTE-2-COPY4-1         739        628         2.
  IMPLANTE-2-COPY4-1         739        652         2.
  IMPLANTE-2-COPY4-1         740        304         2.
  IMPLANTE-2-COPY4-1         740        510         2.
  IMPLANTE-2-COPY4-1         740        591         2.
  IMPLANTE-2-COPY4-1         741        571   798.E-03
  IMPLANTE-2-COPY4-1         741        599   798.E-03
  IMPLANTE-2-COPY4-1         741        602   798.E-03
  IMPLANTE-2-COPY4-1         741        619   798.E-03
  IMPLANTE-2-COPY4-1         742        675         2.
  IMPLANTE-2-COPY4-1         742        682         2.
  IMPLANTE-2-COPY4-1         742        683         2.
  IMPLANTE-2-COPY4-1         742        687         2.
  IMPLANTE-2-COPY4-1         743        617         1.
  IMPLANTE-2-COPY4-1         743        621         1.
  IMPLANTE-2-COPY4-1         743        666         1.
  IMPLANTE-2-COPY4-1         743        689         1.
  IMPLANTE-2-COPY4-1         744        660         2.
  IMPLANTE-2-COPY4-1         744        675         2.
  IMPLANTE-2-COPY4-1         744        688         2.
  IMPLANTE-2-COPY4-1         745        537   538.E-03
  IMPLANTE-2-COPY4-1         745        585   538.E-03
  IMPLANTE-2-COPY4-1         745        586   538.E-03
  IMPLANTE-2-COPY4-1         745        627   538.E-03
  IMPLANTE-2-COPY4-1         746        571   824.E-03
  IMPLANTE-2-COPY4-1         746        603   824.E-03
  IMPLANTE-2-COPY4-1         746        609   824.E-03
  IMPLANTE-2-COPY4-1         746        613   824.E-03
  IMPLANTE-2-COPY4-1         747        569   937.E-03
  IMPLANTE-2-COPY4-1         747        600   937.E-03
  IMPLANTE-2-COPY4-1         747        619   937.E-03
  IMPLANTE-2-COPY4-1         747        639   937.E-03
  IMPLANTE-2-COPY4-1         748        512         1.
  IMPLANTE-2-COPY4-1         748        575         1.
  IMPLANTE-2-COPY4-1         748        622         1.
  IMPLANTE-2-COPY4-1         748        680         1.
  IMPLANTE-2-COPY4-1         749        574   951.E-03
  IMPLANTE-2-COPY4-1         749        577   951.E-03
  IMPLANTE-2-COPY4-1         749        681   951.E-03
  IMPLANTE-2-COPY4-1         749        690   951.E-03
  IMPLANTE-2-COPY4-1         750        597   830.E-03
  IMPLANTE-2-COPY4-1         750        620   830.E-03
  IMPLANTE-2-COPY4-1         750        658   830.E-03
  IMPLANTE-2-COPY4-1         750        691   830.E-03
  IMPLANTE-2-COPY4-1         751        527   710.E-03
  IMPLANTE-2-COPY4-1         751        581   710.E-03
  IMPLANTE-2-COPY4-1         751        623   710.E-03
  IMPLANTE-2-COPY4-1         751        678   710.E-03
  IMPLANTE-2-COPY4-1         752        605   634.E-03
  IMPLANTE-2-COPY4-1         752        612   634.E-03
  IMPLANTE-2-COPY4-1         752        692   634.E-03
  IMPLANTE-2-COPY4-1         752        695   634.E-03
  IMPLANTE-2-COPY4-1         753        643         1.
  IMPLANTE-2-COPY4-1         753        657         1.
  IMPLANTE-2-COPY4-1         753        676         1.
  IMPLANTE-2-COPY4-1         754        629         1.
  IMPLANTE-2-COPY4-1         754        632         1.
  IMPLANTE-2-COPY4-1         754        650         1.
  IMPLANTE-2-COPY4-1         755        621         1.
  IMPLANTE-2-COPY4-1         755        680         1.
  IMPLANTE-2-COPY4-1         755        693         1.
  IMPLANTE-2-COPY4-1         755        694         1.
  IMPLANTE-2-COPY4-1         756        600         1.
  IMPLANTE-2-COPY4-1         756        639         1.
  IMPLANTE-2-COPY4-1         756        684         1.
  IMPLANTE-2-COPY4-1         757        612   643.E-03
  IMPLANTE-2-COPY4-1         757        662   643.E-03
  IMPLANTE-2-COPY4-1         757        664   643.E-03
  IMPLANTE-2-COPY4-1         758        612   671.E-03
  IMPLANTE-2-COPY4-1         758        662   671.E-03
  IMPLANTE-2-COPY4-1         758        695   671.E-03
  IMPLANTE-2-COPY4-1         758        697   671.E-03
  IMPLANTE-2-COPY4-1         759        533         1.
  IMPLANTE-2-COPY4-1         759        633         1.
  IMPLANTE-2-COPY4-1         759        671         1.
  IMPLANTE-2-COPY4-1         759        693         1.
  IMPLANTE-2-COPY4-1         759        694         1.
  IMPLANTE-2-COPY4-1         760        671   991.E-03
  IMPLANTE-2-COPY4-1         760        681   991.E-03
  IMPLANTE-2-COPY4-1         760        690   991.E-03
  IMPLANTE-2-COPY4-1         761        644   740.E-03
  IMPLANTE-2-COPY4-1         761        663   740.E-03
  IMPLANTE-2-COPY4-1         761        696   740.E-03
  IMPLANTE-2-COPY4-1         761        697   740.E-03
  IMPLANTE-2-COPY4-1         762        581   707.E-03
  IMPLANTE-2-COPY4-1         762        695   707.E-03
  IMPLANTE-2-COPY4-1         762        696   707.E-03
  IMPLANTE-2-COPY4-1         762        697   707.E-03
  IMPLANTE-2-COPY4-1         763          1   902.E-03
  IMPLANTE-2-COPY4-1         763         31   902.E-03
  IMPLANTE-2-COPY4-1         764          1   806.E-03
  IMPLANTE-2-COPY4-1         764         13   806.E-03
  IMPLANTE-2-COPY4-1         765          1   835.E-03
  IMPLANTE-2-COPY4-1         766          1         1.
  IMPLANTE-2-COPY4-1         766         30         1.
  IMPLANTE-2-COPY4-1         767          2   913.E-03
  IMPLANTE-2-COPY4-1         767         31   913.E-03
  IMPLANTE-2-COPY4-1         768          2   866.E-03
  IMPLANTE-2-COPY4-1         768         30   866.E-03
  IMPLANTE-2-COPY4-1         769          2   948.E-03
  IMPLANTE-2-COPY4-1         770          2   900.E-03
  IMPLANTE-2-COPY4-1         771          3   639.E-03
  IMPLANTE-2-COPY4-1         771         15   639.E-03
  IMPLANTE-2-COPY4-1         772          3   585.E-03
  IMPLANTE-2-COPY4-1         773          3   686.E-03
  IMPLANTE-2-COPY4-1         773         16   686.E-03
  IMPLANTE-2-COPY4-1         774          3   773.E-03
  IMPLANTE-2-COPY4-1         774        278   802.E-03
  IMPLANTE-2-COPY4-1         775          4   762.E-03
  IMPLANTE-2-COPY4-1         775         20   762.E-03
  IMPLANTE-2-COPY4-1         776          4   730.E-03
  IMPLANTE-2-COPY4-1         777          4   842.E-03
  IMPLANTE-2-COPY4-1         777         70   842.E-03
  IMPLANTE-2-COPY4-1         778          4   892.E-03
  IMPLANTE-2-COPY4-1         778         19   892.E-03
  IMPLANTE-2-COPY4-1         779          5   395.E-03
  IMPLANTE-2-COPY4-1         779         27   395.E-03
  IMPLANTE-2-COPY4-1         780          5   356.E-03
  IMPLANTE-2-COPY4-1         781          5   368.E-03
  IMPLANTE-2-COPY4-1         781         28   368.E-03
  IMPLANTE-2-COPY4-1         782          5   417.E-03
  IMPLANTE-2-COPY4-1         782        295   601.E-03
  IMPLANTE-2-COPY4-1         783          6   610.E-03
  IMPLANTE-2-COPY4-1         783         29   610.E-03
  IMPLANTE-2-COPY4-1         784          6   578.E-03
  IMPLANTE-2-COPY4-1         784         75   578.E-03
  IMPLANTE-2-COPY4-1         785          6   548.E-03
  IMPLANTE-2-COPY4-1         785        267   548.E-03
  IMPLANTE-2-COPY4-1         786          6   659.E-03
  IMPLANTE-2-COPY4-1         786        273   683.E-03
  IMPLANTE-2-COPY4-1         787          7   472.E-03
  IMPLANTE-2-COPY4-1         787         75   472.E-03
  IMPLANTE-2-COPY4-1         788          7   362.E-03
  IMPLANTE-2-COPY4-1         789          7   355.E-03
  IMPLANTE-2-COPY4-1         789         69   355.E-03
  IMPLANTE-2-COPY4-1         790          7   539.E-03
  IMPLANTE-2-COPY4-1         790          8   539.E-03
  IMPLANTE-2-COPY4-1         791          8   554.E-03
  IMPLANTE-2-COPY4-1         792          8   535.E-03
  IMPLANTE-2-COPY4-1         792        267   535.E-03
  IMPLANTE-2-COPY4-1         793          8   560.E-03
  IMPLANTE-2-COPY4-1         793         69   560.E-03
  IMPLANTE-2-COPY4-1         794          9   864.E-03
  IMPLANTE-2-COPY4-1         794         78   864.E-03
  IMPLANTE-2-COPY4-1         795          9   871.E-03
  IMPLANTE-2-COPY4-1         795         81   871.E-03
  IMPLANTE-2-COPY4-1         796          9   926.E-03
  IMPLANTE-2-COPY4-1         796        347         1.
  IMPLANTE-2-COPY4-1         797          9   920.E-03
  IMPLANTE-2-COPY4-1         797         79   920.E-03
  IMPLANTE-2-COPY4-1         798         10   943.E-03
  IMPLANTE-2-COPY4-1         798        118   943.E-03
  IMPLANTE-2-COPY4-1         799         10   988.E-03
  IMPLANTE-2-COPY4-1         799        120   988.E-03
  IMPLANTE-2-COPY4-1         800         10   996.E-03
  IMPLANTE-2-COPY4-1         800        268   996.E-03
  IMPLANTE-2-COPY4-1         801         10   953.E-03
  IMPLANTE-2-COPY4-1         801         19   953.E-03
  IMPLANTE-2-COPY4-1         802         11   872.E-03
  IMPLANTE-2-COPY4-1         802        175   872.E-03
  IMPLANTE-2-COPY4-1         803         11   892.E-03
  IMPLANTE-2-COPY4-1         803         62   892.E-03
  IMPLANTE-2-COPY4-1         804         11   847.E-03
  IMPLANTE-2-COPY4-1         804        142   847.E-03
  IMPLANTE-2-COPY4-1         805         11   828.E-03
  IMPLANTE-2-COPY4-1         805        186   828.E-03
  IMPLANTE-2-COPY4-1         806         12         1.
  IMPLANTE-2-COPY4-1         806        346         1.
  IMPLANTE-2-COPY4-1         807         12         1.
  IMPLANTE-2-COPY4-1         807         21         1.
  IMPLANTE-2-COPY4-1         808         12         1.
  IMPLANTE-2-COPY4-1         808         32         1.
  IMPLANTE-2-COPY4-1         809         12         1.
  IMPLANTE-2-COPY4-1         809         65         1.
  IMPLANTE-2-COPY4-1         810         13   680.E-03
  IMPLANTE-2-COPY4-1         811         13   850.E-03
  IMPLANTE-2-COPY4-1         811         14   850.E-03
  IMPLANTE-2-COPY4-1         812         13   739.E-03
  IMPLANTE-2-COPY4-1         812        333   763.E-03
  IMPLANTE-2-COPY4-1         813         14   993.E-03
  IMPLANTE-2-COPY4-1         813         15   993.E-03
  IMPLANTE-2-COPY4-1         814         14   921.E-03
  IMPLANTE-2-COPY4-1         814        281   955.E-03
  IMPLANTE-2-COPY4-1         815         14   999.E-03
  IMPLANTE-2-COPY4-1         815         31   999.E-03
  IMPLANTE-2-COPY4-1         816         15   764.E-03
  IMPLANTE-2-COPY4-1         817         15   836.E-03
  IMPLANTE-2-COPY4-1         817        280   881.E-03
  IMPLANTE-2-COPY4-1         818         16   669.E-03
  IMPLANTE-2-COPY4-1         819         16   710.E-03
  IMPLANTE-2-COPY4-1         819         17   710.E-03
  IMPLANTE-2-COPY4-1         820         16   761.E-03
  IMPLANTE-2-COPY4-1         820        345   786.E-03
  IMPLANTE-2-COPY4-1         821         17   697.E-03
  IMPLANTE-2-COPY4-1         821         18   697.E-03
  IMPLANTE-2-COPY4-1         822         17   642.E-03
  IMPLANTE-2-COPY4-1         822        284   751.E-03
  IMPLANTE-2-COPY4-1         823         17   772.E-03
  IMPLANTE-2-COPY4-1         824         18   895.E-03
  IMPLANTE-2-COPY4-1         824         20   895.E-03
  IMPLANTE-2-COPY4-1         825         18   917.E-03
  IMPLANTE-2-COPY4-1         825         71   917.E-03
  IMPLANTE-2-COPY4-1         826         18   767.E-03
  IMPLANTE-2-COPY4-1         826        276   882.E-03
  IMPLANTE-2-COPY4-1         827         19   983.E-03
  IMPLANTE-2-COPY4-1         827         71   983.E-03
  IMPLANTE-2-COPY4-1         828         19   919.E-03
  IMPLANTE-2-COPY4-1         828         20   919.E-03
  IMPLANTE-2-COPY4-1         829         20   735.E-03
  IMPLANTE-2-COPY4-1         830         21         1.
  IMPLANTE-2-COPY4-1         830        157         1.
  IMPLANTE-2-COPY4-1         831         21   986.E-03
  IMPLANTE-2-COPY4-1         831        271         1.
  IMPLANTE-2-COPY4-1         832         21   991.E-03
  IMPLANTE-2-COPY4-1         832         73   991.E-03
  IMPLANTE-2-COPY4-1         833         22   952.E-03
  IMPLANTE-2-COPY4-1         834         22   959.E-03
  IMPLANTE-2-COPY4-1         834         76   959.E-03
  IMPLANTE-2-COPY4-1         835         22   940.E-03
  IMPLANTE-2-COPY4-1         835         96   940.E-03
  IMPLANTE-2-COPY4-1         836         22   930.E-03
  IMPLANTE-2-COPY4-1         836         72   930.E-03
  IMPLANTE-2-COPY4-1         837         23   698.E-03
  IMPLANTE-2-COPY4-1         837        130   698.E-03
  IMPLANTE-2-COPY4-1         838         23   675.E-03
  IMPLANTE-2-COPY4-1         838         68   675.E-03
  IMPLANTE-2-COPY4-1         839         23   736.E-03
  IMPLANTE-2-COPY4-1         840         23   745.E-03
  IMPLANTE-2-COPY4-1         840         74   745.E-03
  IMPLANTE-2-COPY4-1         841         24   718.E-03
  IMPLANTE-2-COPY4-1         841        130   718.E-03
  IMPLANTE-2-COPY4-1         842         24   758.E-03
  IMPLANTE-2-COPY4-1         842         80   758.E-03
  IMPLANTE-2-COPY4-1         843         24   767.E-03
  IMPLANTE-2-COPY4-1         843        159   767.E-03
  IMPLANTE-2-COPY4-1         844         24   724.E-03
  IMPLANTE-2-COPY4-1         844        204   724.E-03
  IMPLANTE-2-COPY4-1         845         25   813.E-03
  IMPLANTE-2-COPY4-1         845         26   813.E-03
  IMPLANTE-2-COPY4-1         846         25   850.E-03
  IMPLANTE-2-COPY4-1         846        274         1.
  IMPLANTE-2-COPY4-1         847         25   827.E-03
  IMPLANTE-2-COPY4-1         847         81   827.E-03
  IMPLANTE-2-COPY4-1         848         25   766.E-03
  IMPLANTE-2-COPY4-1         848        116   766.E-03
  IMPLANTE-2-COPY4-1         849         26   687.E-03
  IMPLANTE-2-COPY4-1         849         27   687.E-03
  IMPLANTE-2-COPY4-1         850         26   800.E-03
  IMPLANTE-2-COPY4-1         850        293   969.E-03
  IMPLANTE-2-COPY4-1         851         26   783.E-03
  IMPLANTE-2-COPY4-1         851         74   783.E-03
  IMPLANTE-2-COPY4-1         852         27   470.E-03
  IMPLANTE-2-COPY4-1         853         27   517.E-03
  IMPLANTE-2-COPY4-1         853        306   739.E-03
  IMPLANTE-2-COPY4-1         854         28   298.E-03
  IMPLANTE-2-COPY4-1         855         28   388.E-03
  IMPLANTE-2-COPY4-1         855         29   388.E-03
  IMPLANTE-2-COPY4-1         856         28   468.E-03
  IMPLANTE-2-COPY4-1         856        296   592.E-03
  IMPLANTE-2-COPY4-1         857         29   599.E-03
  IMPLANTE-2-COPY4-1         857        307   709.E-03
  IMPLANTE-2-COPY4-1         858         29   404.E-03
  IMPLANTE-2-COPY4-1         859         30         1.
  IMPLANTE-2-COPY4-1         860         30   993.E-03
  IMPLANTE-2-COPY4-1         861         31         1.
  IMPLANTE-2-COPY4-1         862         32   997.E-03
  IMPLANTE-2-COPY4-1         862        123   997.E-03
  IMPLANTE-2-COPY4-1         863         32         1.
  IMPLANTE-2-COPY4-1         863        157         1.
  IMPLANTE-2-COPY4-1         864         32   998.E-03
  IMPLANTE-2-COPY4-1         864        197   998.E-03
  IMPLANTE-2-COPY4-1         865         33         1.
  IMPLANTE-2-COPY4-1         866         33         1.
  IMPLANTE-2-COPY4-1         866         61         1.
  IMPLANTE-2-COPY4-1         867         33   965.E-03
  IMPLANTE-2-COPY4-1         867        133   965.E-03
  IMPLANTE-2-COPY4-1         868         33   993.E-03
  IMPLANTE-2-COPY4-1         868         87   993.E-03
  IMPLANTE-2-COPY4-1         869         34   906.E-03
  IMPLANTE-2-COPY4-1         869         91   906.E-03
  IMPLANTE-2-COPY4-1         870         34   948.E-03
  IMPLANTE-2-COPY4-1         870         89   948.E-03
  IMPLANTE-2-COPY4-1         871         34   890.E-03
  IMPLANTE-2-COPY4-1         871        131   890.E-03
  IMPLANTE-2-COPY4-1         872         34   849.E-03
  IMPLANTE-2-COPY4-1         872        110   849.E-03
  IMPLANTE-2-COPY4-1         873         35   311.E-03
  IMPLANTE-2-COPY4-1         873        112   311.E-03
  IMPLANTE-2-COPY4-1         874         35   248.E-03
  IMPLANTE-2-COPY4-1         874         93   248.E-03
  IMPLANTE-2-COPY4-1         875         35   228.E-03
  IMPLANTE-2-COPY4-1         876         35   290.E-03
  IMPLANTE-2-COPY4-1         876         59   290.E-03
  IMPLANTE-2-COPY4-1         877         36   232.E-03
  IMPLANTE-2-COPY4-1         877        143   232.E-03
  IMPLANTE-2-COPY4-1         878         36   204.E-03
  IMPLANTE-2-COPY4-1         878        102   204.E-03
  IMPLANTE-2-COPY4-1         879         36   190.E-03
  IMPLANTE-2-COPY4-1         880         36   216.E-03
  IMPLANTE-2-COPY4-1         880         93   216.E-03
  IMPLANTE-2-COPY4-1         881         37   858.E-03
  IMPLANTE-2-COPY4-1         881         92   858.E-03
  IMPLANTE-2-COPY4-1         882         37   800.E-03
  IMPLANTE-2-COPY4-1         882        155   800.E-03
  IMPLANTE-2-COPY4-1         883         37   874.E-03
  IMPLANTE-2-COPY4-1         883        131   874.E-03
  IMPLANTE-2-COPY4-1         884         37   932.E-03
  IMPLANTE-2-COPY4-1         884         56   932.E-03
  IMPLANTE-2-COPY4-1         885         38   528.E-03
  IMPLANTE-2-COPY4-1         886         38   481.E-03
  IMPLANTE-2-COPY4-1         886         40   481.E-03
  IMPLANTE-2-COPY4-1         887         38   432.E-03
  IMPLANTE-2-COPY4-1         887         97   432.E-03
  IMPLANTE-2-COPY4-1         888         38   480.E-03
  IMPLANTE-2-COPY4-1         888         48   480.E-03
  IMPLANTE-2-COPY4-1         889         39   446.E-03
  IMPLANTE-2-COPY4-1         890         39   420.E-03
  IMPLANTE-2-COPY4-1         890         49   420.E-03
  IMPLANTE-2-COPY4-1         891         39   434.E-03
  IMPLANTE-2-COPY4-1         891         50   434.E-03
  IMPLANTE-2-COPY4-1         892         39   462.E-03
  IMPLANTE-2-COPY4-1         892         51   462.E-03
  IMPLANTE-2-COPY4-1         893         40   442.E-03
  IMPLANTE-2-COPY4-1         893        166   442.E-03
  IMPLANTE-2-COPY4-1         894         40   522.E-03
  IMPLANTE-2-COPY4-1         895         40   481.E-03
  IMPLANTE-2-COPY4-1         895         84   481.E-03
  IMPLANTE-2-COPY4-1         896         41   906.E-03
  IMPLANTE-2-COPY4-1         896        127   906.E-03
  IMPLANTE-2-COPY4-1         897         41         1.
  IMPLANTE-2-COPY4-1         897         82         1.
  IMPLANTE-2-COPY4-1         898         41         1.
  IMPLANTE-2-COPY4-1         899         41         1.
  IMPLANTE-2-COPY4-1         899         83         1.
  IMPLANTE-2-COPY4-1         900         42   343.E-03
  IMPLANTE-2-COPY4-1         900        124   343.E-03
  IMPLANTE-2-COPY4-1         901         42   294.E-03
  IMPLANTE-2-COPY4-1         901        180   294.E-03
  IMPLANTE-2-COPY4-1         902         42   297.E-03
  IMPLANTE-2-COPY4-1         902        165   297.E-03
  IMPLANTE-2-COPY4-1         903         42   346.E-03
  IMPLANTE-2-COPY4-1         903        105   346.E-03
  IMPLANTE-2-COPY4-1         904         43   375.E-03
  IMPLANTE-2-COPY4-1         904        139   375.E-03
  IMPLANTE-2-COPY4-1         905         43   331.E-03
  IMPLANTE-2-COPY4-1         905        201   331.E-03
  IMPLANTE-2-COPY4-1         906         43   346.E-03
  IMPLANTE-2-COPY4-1         906        184   346.E-03
  IMPLANTE-2-COPY4-1         907         43   389.E-03
  IMPLANTE-2-COPY4-1         907        202   389.E-03
  IMPLANTE-2-COPY4-1         908         44   822.E-03
  IMPLANTE-2-COPY4-1         908         95   822.E-03
  IMPLANTE-2-COPY4-1         909         44         1.
  IMPLANTE-2-COPY4-1         909         83         1.
  IMPLANTE-2-COPY4-1         910         44         1.
  IMPLANTE-2-COPY4-1         911         44   981.E-03
  IMPLANTE-2-COPY4-1         911         45   981.E-03
  IMPLANTE-2-COPY4-1         912         45   721.E-03
  IMPLANTE-2-COPY4-1         912         99   721.E-03
  IMPLANTE-2-COPY4-1         913         45         1.
  IMPLANTE-2-COPY4-1         914         45   969.E-03
  IMPLANTE-2-COPY4-1         915         46   588.E-03
  IMPLANTE-2-COPY4-1         916         46   507.E-03
  IMPLANTE-2-COPY4-1         916         47   507.E-03
  IMPLANTE-2-COPY4-1         917         46   461.E-03
  IMPLANTE-2-COPY4-1         917        139   461.E-03
  IMPLANTE-2-COPY4-1         918         46   544.E-03
  IMPLANTE-2-COPY4-1         918        100   544.E-03
  IMPLANTE-2-COPY4-1         919         47   554.E-03
  IMPLANTE-2-COPY4-1         920         47   487.E-03
  IMPLANTE-2-COPY4-1         920         48   487.E-03
  IMPLANTE-2-COPY4-1         921         47   437.E-03
  IMPLANTE-2-COPY4-1         921        125   437.E-03
  IMPLANTE-2-COPY4-1         922         48   428.E-03
  IMPLANTE-2-COPY4-1         922        128   428.E-03
  IMPLANTE-2-COPY4-1         923         48   536.E-03
  IMPLANTE-2-COPY4-1         924         49   384.E-03
  IMPLANTE-2-COPY4-1         924        124   384.E-03
  IMPLANTE-2-COPY4-1         925         49   403.E-03
  IMPLANTE-2-COPY4-1         926         49   367.E-03
  IMPLANTE-2-COPY4-1         926        107   367.E-03
  IMPLANTE-2-COPY4-1         927         50   434.E-03
  IMPLANTE-2-COPY4-1         927        169   434.E-03
  IMPLANTE-2-COPY4-1         928         50   391.E-03
  IMPLANTE-2-COPY4-1         928        124   391.E-03
  IMPLANTE-2-COPY4-1         929         50   392.E-03
  IMPLANTE-2-COPY4-1         929        105   392.E-03
  IMPLANTE-2-COPY4-1         930         51   472.E-03
  IMPLANTE-2-COPY4-1         931         51   466.E-03
  IMPLANTE-2-COPY4-1         931        169   466.E-03
  IMPLANTE-2-COPY4-1         932         51   478.E-03
  IMPLANTE-2-COPY4-1         932         53   478.E-03
  IMPLANTE-2-COPY4-1         933         52   272.E-03
  IMPLANTE-2-COPY4-1         933        108   272.E-03
  IMPLANTE-2-COPY4-1         934         52   311.E-03
  IMPLANTE-2-COPY4-1         934        107   311.E-03
  IMPLANTE-2-COPY4-1         935         52   298.E-03
  IMPLANTE-2-COPY4-1         936         52   258.E-03
  IMPLANTE-2-COPY4-1         936         54   258.E-03
  IMPLANTE-2-COPY4-1         937         53   467.E-03
  IMPLANTE-2-COPY4-1         937         84   467.E-03
  IMPLANTE-2-COPY4-1         938         53   465.E-03
  IMPLANTE-2-COPY4-1         939         53   474.E-03
  IMPLANTE-2-COPY4-1         940         54   231.E-03
  IMPLANTE-2-COPY4-1         940        147   231.E-03
  IMPLANTE-2-COPY4-1         941         54   247.E-03
  IMPLANTE-2-COPY4-1         942         54   219.E-03
  IMPLANTE-2-COPY4-1         942        102   219.E-03
  IMPLANTE-2-COPY4-1         943         55   681.E-03
  IMPLANTE-2-COPY4-1         943        163   681.E-03
  IMPLANTE-2-COPY4-1         944         55   630.E-03
  IMPLANTE-2-COPY4-1         944         58   630.E-03
  IMPLANTE-2-COPY4-1         945         55   721.E-03
  IMPLANTE-2-COPY4-1         945        155   721.E-03
  IMPLANTE-2-COPY4-1         946         55   772.E-03
  IMPLANTE-2-COPY4-1         946         92   772.E-03
  IMPLANTE-2-COPY4-1         947         56        1.0
  IMPLANTE-2-COPY4-1         947         57        1.0
  IMPLANTE-2-COPY4-1         948         56         1.
  IMPLANTE-2-COPY4-1         949         56         1.
  IMPLANTE-2-COPY4-1         949         85         1.
  IMPLANTE-2-COPY4-1         950         57   940.E-03
  IMPLANTE-2-COPY4-1         950        131   940.E-03
  IMPLANTE-2-COPY4-1         951         57         1.
  IMPLANTE-2-COPY4-1         951         89         1.
  IMPLANTE-2-COPY4-1         952         57         1.
  IMPLANTE-2-COPY4-1         953         58   506.E-03
  IMPLANTE-2-COPY4-1         953        208   506.E-03
  IMPLANTE-2-COPY4-1         954         58   596.E-03
  IMPLANTE-2-COPY4-1         954        209   596.E-03
  IMPLANTE-2-COPY4-1         955         58   540.E-03
  IMPLANTE-2-COPY4-1         955        207   540.E-03
  IMPLANTE-2-COPY4-1         956         59   270.E-03
  IMPLANTE-2-COPY4-1         957         59   338.E-03
  IMPLANTE-2-COPY4-1         957         98   338.E-03
  IMPLANTE-2-COPY4-1         958         59   360.E-03
  IMPLANTE-2-COPY4-1         958        111   360.E-03
  IMPLANTE-2-COPY4-1         959         60   956.E-03
  IMPLANTE-2-COPY4-1         959         91   956.E-03
  IMPLANTE-2-COPY4-1         960         60         1.
  IMPLANTE-2-COPY4-1         960         61         1.
  IMPLANTE-2-COPY4-1         961         60         1.
  IMPLANTE-2-COPY4-1         962         60         1.
  IMPLANTE-2-COPY4-1         962         89         1.
  IMPLANTE-2-COPY4-1         963         61         1.
  IMPLANTE-2-COPY4-1         964         61   962.E-03
  IMPLANTE-2-COPY4-1         964         62   962.E-03
  IMPLANTE-2-COPY4-1         965         62   921.E-03
  IMPLANTE-2-COPY4-1         965         91   921.E-03
  IMPLANTE-2-COPY4-1         966         62   932.E-03
  IMPLANTE-2-COPY4-1         966        133   932.E-03
  IMPLANTE-2-COPY4-1         967         63   577.E-03
  IMPLANTE-2-COPY4-1         967         64   577.E-03
  IMPLANTE-2-COPY4-1         968         63   576.E-03
  IMPLANTE-2-COPY4-1         968         88   576.E-03
  IMPLANTE-2-COPY4-1         969         63   632.E-03
  IMPLANTE-2-COPY4-1         969        122   632.E-03
  IMPLANTE-2-COPY4-1         970         63   636.E-03
  IMPLANTE-2-COPY4-1         970        190   636.E-03
  IMPLANTE-2-COPY4-1         971         64   588.E-03
  IMPLANTE-2-COPY4-1         971        188   588.E-03
  IMPLANTE-2-COPY4-1         972         64   525.E-03
  IMPLANTE-2-COPY4-1         972        146   525.E-03
  IMPLANTE-2-COPY4-1         973         64   515.E-03
  IMPLANTE-2-COPY4-1         973         67   515.E-03
  IMPLANTE-2-COPY4-1         974         65   994.E-03
  IMPLANTE-2-COPY4-1         974        123   994.E-03
  IMPLANTE-2-COPY4-1         975         65   998.E-03
  IMPLANTE-2-COPY4-1         975         66   998.E-03
  IMPLANTE-2-COPY4-1         976         65         1.
  IMPLANTE-2-COPY4-1         976        327         1.
  IMPLANTE-2-COPY4-1         977         66   961.E-03
  IMPLANTE-2-COPY4-1         977        103   961.E-03
  IMPLANTE-2-COPY4-1         978         66   965.E-03
  IMPLANTE-2-COPY4-1         978         79   965.E-03
  IMPLANTE-2-COPY4-1         979         66         1.
  IMPLANTE-2-COPY4-1         979        270         1.
  IMPLANTE-2-COPY4-1         980         67   445.E-03
  IMPLANTE-2-COPY4-1         981         67   509.E-03
  IMPLANTE-2-COPY4-1         981         88   509.E-03
  IMPLANTE-2-COPY4-1         982         67   445.E-03
  IMPLANTE-2-COPY4-1         982        101   445.E-03
  IMPLANTE-2-COPY4-1         983         68   624.E-03
  IMPLANTE-2-COPY4-1         984         68   642.E-03
  IMPLANTE-2-COPY4-1         984        122   642.E-03
  IMPLANTE-2-COPY4-1         985         68   585.E-03
  IMPLANTE-2-COPY4-1         985         88   585.E-03
  IMPLANTE-2-COPY4-1         986         69   387.E-03
  IMPLANTE-2-COPY4-1         987         69   617.E-03
  IMPLANTE-2-COPY4-1         988         70   835.E-03
  IMPLANTE-2-COPY4-1         989         70   890.E-03
  IMPLANTE-2-COPY4-1         989         72   890.E-03
  IMPLANTE-2-COPY4-1         990         70   905.E-03
  IMPLANTE-2-COPY4-1         990        118   905.E-03
  IMPLANTE-2-COPY4-1         991         71         1.
  IMPLANTE-2-COPY4-1         991        268         1.
  IMPLANTE-2-COPY4-1         992         71   950.E-03
  IMPLANTE-2-COPY4-1         992         73   950.E-03
  IMPLANTE-2-COPY4-1         993         72   904.E-03
  IMPLANTE-2-COPY4-1         994         72   920.E-03
  IMPLANTE-2-COPY4-1         994         77   920.E-03
  IMPLANTE-2-COPY4-1         995         73   920.E-03
  IMPLANTE-2-COPY4-1         995        269         1.
  IMPLANTE-2-COPY4-1         996         73         1.
  IMPLANTE-2-COPY4-1         996        117         1.
  IMPLANTE-2-COPY4-1         997         74   871.E-03
  IMPLANTE-2-COPY4-1         998         74   703.E-03
  IMPLANTE-2-COPY4-1         998        116   703.E-03
  IMPLANTE-2-COPY4-1         999         75   616.E-03
  IMPLANTE-2-COPY4-1        1000         75   517.E-03
  IMPLANTE-2-COPY4-1        1000        267   517.E-03
  IMPLANTE-2-COPY4-1        1001         76   988.E-03
  IMPLANTE-2-COPY4-1        1002         76   980.E-03
  IMPLANTE-2-COPY4-1        1002         87   980.E-03
  IMPLANTE-2-COPY4-1        1003         76   954.E-03
  IMPLANTE-2-COPY4-1        1003        119   954.E-03
  IMPLANTE-2-COPY4-1        1004         77   931.E-03
  IMPLANTE-2-COPY4-1        1004        118   931.E-03
  IMPLANTE-2-COPY4-1        1005         77   937.E-03
  IMPLANTE-2-COPY4-1        1005         96   937.E-03
  IMPLANTE-2-COPY4-1        1006         77   948.E-03
  IMPLANTE-2-COPY4-1        1006        167   948.E-03
  IMPLANTE-2-COPY4-1        1007         78   868.E-03
  IMPLANTE-2-COPY4-1        1007        121   868.E-03
  IMPLANTE-2-COPY4-1        1008         78   815.E-03
  IMPLANTE-2-COPY4-1        1008        159   815.E-03
  IMPLANTE-2-COPY4-1        1009         78   811.E-03
  IMPLANTE-2-COPY4-1        1009         80   811.E-03
  IMPLANTE-2-COPY4-1        1010         79   968.E-03
  IMPLANTE-2-COPY4-1        1010        289         1.
  IMPLANTE-2-COPY4-1        1011         79   916.E-03
  IMPLANTE-2-COPY4-1        1011        121   916.E-03
  IMPLANTE-2-COPY4-1        1012         80   756.E-03
  IMPLANTE-2-COPY4-1        1012        116   756.E-03
  IMPLANTE-2-COPY4-1        1013         80   813.E-03
  IMPLANTE-2-COPY4-1        1013         81   813.E-03
  IMPLANTE-2-COPY4-1        1014         81   883.E-03
  IMPLANTE-2-COPY4-1        1014        291         1.
  IMPLANTE-2-COPY4-1        1015         82         1.
  IMPLANTE-2-COPY4-1        1016         82   917.E-03
  IMPLANTE-2-COPY4-1        1016        135   917.E-03
  IMPLANTE-2-COPY4-1        1017         82         1.
  IMPLANTE-2-COPY4-1        1017         85         1.
  IMPLANTE-2-COPY4-1        1018         83   882.E-03
  IMPLANTE-2-COPY4-1        1018        138   882.E-03
  IMPLANTE-2-COPY4-1        1019         83         1.
  IMPLANTE-2-COPY4-1        1020         84   454.E-03
  IMPLANTE-2-COPY4-1        1020        169   454.E-03
  IMPLANTE-2-COPY4-1        1021         84   507.E-03
  IMPLANTE-2-COPY4-1        1022         85         1.
  IMPLANTE-2-COPY4-1        1023         85   925.E-03
  IMPLANTE-2-COPY4-1        1023         92   925.E-03
  IMPLANTE-2-COPY4-1        1024         86   497.E-03
  IMPLANTE-2-COPY4-1        1024        126   497.E-03
  IMPLANTE-2-COPY4-1        1025         86   544.E-03
  IMPLANTE-2-COPY4-1        1025        164   544.E-03
  IMPLANTE-2-COPY4-1        1026         86   601.E-03
  IMPLANTE-2-COPY4-1        1026         95   601.E-03
  IMPLANTE-2-COPY4-1        1027         86   561.E-03
  IMPLANTE-2-COPY4-1        1027        129   561.E-03
  IMPLANTE-2-COPY4-1        1028         87         1.
  IMPLANTE-2-COPY4-1        1029         87   962.E-03
  IMPLANTE-2-COPY4-1        1029        132   962.E-03
  IMPLANTE-2-COPY4-1        1030         88   525.E-03
  IMPLANTE-2-COPY4-1        1031         89         1.
  IMPLANTE-2-COPY4-1        1032         90   529.E-03
  IMPLANTE-2-COPY4-1        1032        181   529.E-03
  IMPLANTE-2-COPY4-1        1033         90   443.E-03
  IMPLANTE-2-COPY4-1        1033        202   443.E-03
  IMPLANTE-2-COPY4-1        1034         90   401.E-03
  IMPLANTE-2-COPY4-1        1034        184   401.E-03
  IMPLANTE-2-COPY4-1        1035         90   487.E-03
  IMPLANTE-2-COPY4-1        1035        207   487.E-03
  IMPLANTE-2-COPY4-1        1036         91   872.E-03
  IMPLANTE-2-COPY4-1        1036        142   872.E-03
  IMPLANTE-2-COPY4-1        1037         92   839.E-03
  IMPLANTE-2-COPY4-1        1037        135   839.E-03
  IMPLANTE-2-COPY4-1        1038         93   267.E-03
  IMPLANTE-2-COPY4-1        1038        106   267.E-03
  IMPLANTE-2-COPY4-1        1039         93   198.E-03
  IMPLANTE-2-COPY4-1        1040         94   999.E-03
  IMPLANTE-2-COPY4-1        1040        194   999.E-03
  IMPLANTE-2-COPY4-1        1041         94         1.
  IMPLANTE-2-COPY4-1        1041        134         1.
  IMPLANTE-2-COPY4-1        1042         94         1.
  IMPLANTE-2-COPY4-1        1042        117         1.
  IMPLANTE-2-COPY4-1        1043         94         1.
  IMPLANTE-2-COPY4-1        1043        120         1.
  IMPLANTE-2-COPY4-1        1044         95   737.E-03
  IMPLANTE-2-COPY4-1        1044        138   737.E-03
  IMPLANTE-2-COPY4-1        1045         95   669.E-03
  IMPLANTE-2-COPY4-1        1045         99   669.E-03
  IMPLANTE-2-COPY4-1        1046         96   942.E-03
  IMPLANTE-2-COPY4-1        1046        119   942.E-03
  IMPLANTE-2-COPY4-1        1047         96   940.E-03
  IMPLANTE-2-COPY4-1        1047        145   940.E-03
  IMPLANTE-2-COPY4-1        1048         97   390.E-03
  IMPLANTE-2-COPY4-1        1048        128   390.E-03
  IMPLANTE-2-COPY4-1        1049         97   407.E-03
  IMPLANTE-2-COPY4-1        1049        166   407.E-03
  IMPLANTE-2-COPY4-1        1050         97   362.E-03
  IMPLANTE-2-COPY4-1        1050        179   362.E-03
  IMPLANTE-2-COPY4-1        1051         98   409.E-03
  IMPLANTE-2-COPY4-1        1051        137   409.E-03
  IMPLANTE-2-COPY4-1        1052         98   320.E-03
  IMPLANTE-2-COPY4-1        1053         98   389.E-03
  IMPLANTE-2-COPY4-1        1053        101   389.E-03
  IMPLANTE-2-COPY4-1        1054         99   794.E-03
  IMPLANTE-2-COPY4-1        1055         99   667.E-03
  IMPLANTE-2-COPY4-1        1055        129   667.E-03
  IMPLANTE-2-COPY4-1        1056        100   503.E-03
  IMPLANTE-2-COPY4-1        1056        126   503.E-03
  IMPLANTE-2-COPY4-1        1057        100   598.E-03
  IMPLANTE-2-COPY4-1        1057        129   598.E-03
  IMPLANTE-2-COPY4-1        1058        100   639.E-03
  IMPLANTE-2-COPY4-1        1059        101   378.E-03
  IMPLANTE-2-COPY4-1        1060        101   460.E-03
  IMPLANTE-2-COPY4-1        1060        146   460.E-03
  IMPLANTE-2-COPY4-1        1061        102   208.E-03
  IMPLANTE-2-COPY4-1        1062        102   217.E-03
  IMPLANTE-2-COPY4-1        1062        148   217.E-03
  IMPLANTE-2-COPY4-1        1063        103   965.E-03
  IMPLANTE-2-COPY4-1        1063        123   965.E-03
  IMPLANTE-2-COPY4-1        1064        103   924.E-03
  IMPLANTE-2-COPY4-1        1064        195   924.E-03
  IMPLANTE-2-COPY4-1        1065        103   921.E-03
  IMPLANTE-2-COPY4-1        1065        121   921.E-03
  IMPLANTE-2-COPY4-1        1066        104   615.E-03
  IMPLANTE-2-COPY4-1        1066        185   615.E-03
  IMPLANTE-2-COPY4-1        1067        104   555.E-03
  IMPLANTE-2-COPY4-1        1067        174   555.E-03
  IMPLANTE-2-COPY4-1        1068        104   541.E-03
  IMPLANTE-2-COPY4-1        1068        146   541.E-03
  IMPLANTE-2-COPY4-1        1069        104   601.E-03
  IMPLANTE-2-COPY4-1        1069        188   601.E-03
  IMPLANTE-2-COPY4-1        1070        105   350.E-03
  IMPLANTE-2-COPY4-1        1070        179   350.E-03
  IMPLANTE-2-COPY4-1        1071        105   394.E-03
  IMPLANTE-2-COPY4-1        1071        166   394.E-03
  IMPLANTE-2-COPY4-1        1072        106   327.E-03
  IMPLANTE-2-COPY4-1        1072        112   327.E-03
  IMPLANTE-2-COPY4-1        1073        106   339.E-03
  IMPLANTE-2-COPY4-1        1073        154   339.E-03
  IMPLANTE-2-COPY4-1        1074        106   279.E-03
  IMPLANTE-2-COPY4-1        1074        143   279.E-03
  IMPLANTE-2-COPY4-1        1075        107   352.E-03
  IMPLANTE-2-COPY4-1        1076        107   327.E-03
  IMPLANTE-2-COPY4-1        1076        149   327.E-03
  IMPLANTE-2-COPY4-1        1077        108   238.E-03
  IMPLANTE-2-COPY4-1        1077        147   238.E-03
  IMPLANTE-2-COPY4-1        1078        108   246.E-03
  IMPLANTE-2-COPY4-1        1078        109   246.E-03
  IMPLANTE-2-COPY4-1        1079        108   281.E-03
  IMPLANTE-2-COPY4-1        1079        149   281.E-03
  IMPLANTE-2-COPY4-1        1080        109   229.E-03
  IMPLANTE-2-COPY4-1        1080        152   229.E-03
  IMPLANTE-2-COPY4-1        1081        109   231.E-03
  IMPLANTE-2-COPY4-1        1081        178   231.E-03
  IMPLANTE-2-COPY4-1        1082        109   250.E-03
  IMPLANTE-2-COPY4-1        1082        180   250.E-03
  IMPLANTE-2-COPY4-1        1083        110   788.E-03
  IMPLANTE-2-COPY4-1        1083        170   788.E-03
  IMPLANTE-2-COPY4-1        1084        110   759.E-03
  IMPLANTE-2-COPY4-1        1084        177   759.E-03
  IMPLANTE-2-COPY4-1        1085        110   819.E-03
  IMPLANTE-2-COPY4-1        1085        142   819.E-03
  IMPLANTE-2-COPY4-1        1086        111   377.E-03
  IMPLANTE-2-COPY4-1        1086        112   377.E-03
  IMPLANTE-2-COPY4-1        1087        111   426.E-03
  IMPLANTE-2-COPY4-1        1087        137   426.E-03
  IMPLANTE-2-COPY4-1        1088        111   444.E-03
  IMPLANTE-2-COPY4-1        1088        114   444.E-03
  IMPLANTE-2-COPY4-1        1089        112   392.E-03
  IMPLANTE-2-COPY4-1        1089        141   392.E-03
  IMPLANTE-2-COPY4-1        1090        113   532.E-03
  IMPLANTE-2-COPY4-1        1090        115   532.E-03
  IMPLANTE-2-COPY4-1        1091        113   542.E-03
  IMPLANTE-2-COPY4-1        1091        217   542.E-03
  IMPLANTE-2-COPY4-1        1092        113   479.E-03
  IMPLANTE-2-COPY4-1        1092        206   479.E-03
  IMPLANTE-2-COPY4-1        1093        113   470.E-03
  IMPLANTE-2-COPY4-1        1093        141   470.E-03
  IMPLANTE-2-COPY4-1        1094        114   522.E-03
  IMPLANTE-2-COPY4-1        1094        115   522.E-03
  IMPLANTE-2-COPY4-1        1095        114   458.E-03
  IMPLANTE-2-COPY4-1        1095        141   458.E-03
  IMPLANTE-2-COPY4-1        1096        114   508.E-03
  IMPLANTE-2-COPY4-1        1096        174   508.E-03
  IMPLANTE-2-COPY4-1        1097        115   581.E-03
  IMPLANTE-2-COPY4-1        1097        216   581.E-03
  IMPLANTE-2-COPY4-1        1098        115   592.E-03
  IMPLANTE-2-COPY4-1        1098        241   592.E-03
  IMPLANTE-2-COPY4-1        1099        116   723.E-03
  IMPLANTE-2-COPY4-1        1099        130   723.E-03
  IMPLANTE-2-COPY4-1        1100        117         1.
  IMPLANTE-2-COPY4-1        1100        157         1.
  IMPLANTE-2-COPY4-1        1101        117         1.
  IMPLANTE-2-COPY4-1        1101        268         1.
  IMPLANTE-2-COPY4-1        1102        118   963.E-03
  IMPLANTE-2-COPY4-1        1102        158   963.E-03
  IMPLANTE-2-COPY4-1        1103        119   944.E-03
  IMPLANTE-2-COPY4-1        1103        132   944.E-03
  IMPLANTE-2-COPY4-1        1104        119   933.E-03
  IMPLANTE-2-COPY4-1        1104        168   933.E-03
  IMPLANTE-2-COPY4-1        1105        120   988.E-03
  IMPLANTE-2-COPY4-1        1105        158   988.E-03
  IMPLANTE-2-COPY4-1        1106        120         1.
  IMPLANTE-2-COPY4-1        1106        268         1.
  IMPLANTE-2-COPY4-1        1107        121   872.E-03
  IMPLANTE-2-COPY4-1        1107        160   872.E-03
  IMPLANTE-2-COPY4-1        1108        122   686.E-03
  IMPLANTE-2-COPY4-1        1108        130   686.E-03
  IMPLANTE-2-COPY4-1        1109        122   679.E-03
  IMPLANTE-2-COPY4-1        1109        204   679.E-03
  IMPLANTE-2-COPY4-1        1110        123   967.E-03
  IMPLANTE-2-COPY4-1        1110        196   967.E-03
  IMPLANTE-2-COPY4-1        1111        124   336.E-03
  IMPLANTE-2-COPY4-1        1111        149   336.E-03
  IMPLANTE-2-COPY4-1        1112        125   386.E-03
  IMPLANTE-2-COPY4-1        1112        128   386.E-03
  IMPLANTE-2-COPY4-1        1113        125   346.E-03
  IMPLANTE-2-COPY4-1        1113        201   346.E-03
  IMPLANTE-2-COPY4-1        1114        125   400.E-03
  IMPLANTE-2-COPY4-1        1114        139   400.E-03
  IMPLANTE-2-COPY4-1        1115        126   436.E-03
  IMPLANTE-2-COPY4-1        1115        139   436.E-03
  IMPLANTE-2-COPY4-1        1116        126   436.E-03
  IMPLANTE-2-COPY4-1        1116        202   436.E-03
  IMPLANTE-2-COPY4-1        1117        127   787.E-03
  IMPLANTE-2-COPY4-1        1117        138   787.E-03
  IMPLANTE-2-COPY4-1        1118        127   699.E-03
  IMPLANTE-2-COPY4-1        1118        181   699.E-03
  IMPLANTE-2-COPY4-1        1119        127   818.E-03
  IMPLANTE-2-COPY4-1        1119        135   818.E-03
  IMPLANTE-2-COPY4-1        1120        128   344.E-03
  IMPLANTE-2-COPY4-1        1120        203   344.E-03
  IMPLANTE-2-COPY4-1        1121        129   713.E-03
  IMPLANTE-2-COPY4-1        1122        131   825.E-03
  IMPLANTE-2-COPY4-1        1122        170   825.E-03
  IMPLANTE-2-COPY4-1        1123        132   940.E-03
  IMPLANTE-2-COPY4-1        1123        133   940.E-03
  IMPLANTE-2-COPY4-1        1124        132   923.E-03
  IMPLANTE-2-COPY4-1        1124        144   923.E-03
  IMPLANTE-2-COPY4-1        1125        133   909.E-03
  IMPLANTE-2-COPY4-1        1125        175   909.E-03
  IMPLANTE-2-COPY4-1        1126        134   993.E-03
  IMPLANTE-2-COPY4-1        1126        228   993.E-03
  IMPLANTE-2-COPY4-1        1127        134   998.E-03
  IMPLANTE-2-COPY4-1        1127        197   998.E-03
  IMPLANTE-2-COPY4-1        1128        134         1.
  IMPLANTE-2-COPY4-1        1128        157         1.
  IMPLANTE-2-COPY4-1        1129        135   740.E-03
  IMPLANTE-2-COPY4-1        1129        163   740.E-03
  IMPLANTE-2-COPY4-1        1130        136   309.E-03
  IMPLANTE-2-COPY4-1        1130        220   309.E-03
  IMPLANTE-2-COPY4-1        1131        136   296.E-03
  IMPLANTE-2-COPY4-1        1131        171   296.E-03
  IMPLANTE-2-COPY4-1        1132        136   364.E-03
  IMPLANTE-2-COPY4-1        1132        140   364.E-03
  IMPLANTE-2-COPY4-1        1133        136   379.E-03
  IMPLANTE-2-COPY4-1        1133        221   379.E-03
  IMPLANTE-2-COPY4-1        1134        137   475.E-03
  IMPLANTE-2-COPY4-1        1134        146   475.E-03
  IMPLANTE-2-COPY4-1        1135        137   493.E-03
  IMPLANTE-2-COPY4-1        1135        174   493.E-03
  IMPLANTE-2-COPY4-1        1136        138   646.E-03
  IMPLANTE-2-COPY4-1        1136        164   646.E-03
  IMPLANTE-2-COPY4-1        1137        140   423.E-03
  IMPLANTE-2-COPY4-1        1137        206   423.E-03
  IMPLANTE-2-COPY4-1        1138        140   432.E-03
  IMPLANTE-2-COPY4-1        1138        173   432.E-03
  IMPLANTE-2-COPY4-1        1139        140   355.E-03
  IMPLANTE-2-COPY4-1        1139        172   355.E-03
  IMPLANTE-2-COPY4-1        1140        141   404.E-03
  IMPLANTE-2-COPY4-1        1140        154   404.E-03
  IMPLANTE-2-COPY4-1        1141        142   795.E-03
  IMPLANTE-2-COPY4-1        1141        150   795.E-03
  IMPLANTE-2-COPY4-1        1142        143   241.E-03
  IMPLANTE-2-COPY4-1        1142        148   241.E-03
  IMPLANTE-2-COPY4-1        1143        143   289.E-03
  IMPLANTE-2-COPY4-1        1143        172   289.E-03
  IMPLANTE-2-COPY4-1        1144        144   915.E-03
  IMPLANTE-2-COPY4-1        1144        168   915.E-03
  IMPLANTE-2-COPY4-1        1145        144   895.E-03
  IMPLANTE-2-COPY4-1        1145        175   895.E-03
  IMPLANTE-2-COPY4-1        1146        144   888.E-03
  IMPLANTE-2-COPY4-1        1146        156   888.E-03
  IMPLANTE-2-COPY4-1        1147        145   931.E-03
  IMPLANTE-2-COPY4-1        1147        168   931.E-03
  IMPLANTE-2-COPY4-1        1148        145   937.E-03
  IMPLANTE-2-COPY4-1        1148        192   937.E-03
  IMPLANTE-2-COPY4-1        1149        145   946.E-03
  IMPLANTE-2-COPY4-1        1149        167   946.E-03
  IMPLANTE-2-COPY4-1        1150        147   223.E-03
  IMPLANTE-2-COPY4-1        1150        148   223.E-03
  IMPLANTE-2-COPY4-1        1151        147   227.E-03
  IMPLANTE-2-COPY4-1        1151        152   227.E-03
  IMPLANTE-2-COPY4-1        1152        148   246.E-03
  IMPLANTE-2-COPY4-1        1152        171   246.E-03
  IMPLANTE-2-COPY4-1        1153        149   290.E-03
  IMPLANTE-2-COPY4-1        1153        180   290.E-03
  IMPLANTE-2-COPY4-1        1154        150   739.E-03
  IMPLANTE-2-COPY4-1        1154        177   739.E-03
  IMPLANTE-2-COPY4-1        1155        150   724.E-03
  IMPLANTE-2-COPY4-1        1155        219   724.E-03
  IMPLANTE-2-COPY4-1        1156        150   779.E-03
  IMPLANTE-2-COPY4-1        1156        186   779.E-03
  IMPLANTE-2-COPY4-1        1157        151   778.E-03
  IMPLANTE-2-COPY4-1        1157        250   778.E-03
  IMPLANTE-2-COPY4-1        1158        151   821.E-03
  IMPLANTE-2-COPY4-1        1158        265   821.E-03
  IMPLANTE-2-COPY4-1        1159        151   828.E-03
  IMPLANTE-2-COPY4-1        1159        234   828.E-03
  IMPLANTE-2-COPY4-1        1160        151   785.E-03
  IMPLANTE-2-COPY4-1        1160        193   785.E-03
  IMPLANTE-2-COPY4-1        1161        152   248.E-03
  IMPLANTE-2-COPY4-1        1161        171   248.E-03
  IMPLANTE-2-COPY4-1        1162        152   244.E-03
  IMPLANTE-2-COPY4-1        1162        211   244.E-03
  IMPLANTE-2-COPY4-1        1163        153   552.E-03
  IMPLANTE-2-COPY4-1        1163        217   552.E-03
  IMPLANTE-2-COPY4-1        1164        153   562.E-03
  IMPLANTE-2-COPY4-1        1164        248   562.E-03
  IMPLANTE-2-COPY4-1        1165        153   499.E-03
  IMPLANTE-2-COPY4-1        1165        173   499.E-03
  IMPLANTE-2-COPY4-1        1166        153   489.E-03
  IMPLANTE-2-COPY4-1        1166        206   489.E-03
  IMPLANTE-2-COPY4-1        1167        154   414.E-03
  IMPLANTE-2-COPY4-1        1167        206   414.E-03
  IMPLANTE-2-COPY4-1        1168        154   349.E-03
  IMPLANTE-2-COPY4-1        1168        172   349.E-03
  IMPLANTE-2-COPY4-1        1169        155   756.E-03
  IMPLANTE-2-COPY4-1        1169        170   756.E-03
  IMPLANTE-2-COPY4-1        1170        155   677.E-03
  IMPLANTE-2-COPY4-1        1170        209   677.E-03
  IMPLANTE-2-COPY4-1        1171        156   889.E-03
  IMPLANTE-2-COPY4-1        1171        199   889.E-03
  IMPLANTE-2-COPY4-1        1172        156   850.E-03
  IMPLANTE-2-COPY4-1        1172        187   850.E-03
  IMPLANTE-2-COPY4-1        1173        156   852.E-03
  IMPLANTE-2-COPY4-1        1173        189   852.E-03
  IMPLANTE-2-COPY4-1        1174        158   962.E-03
  IMPLANTE-2-COPY4-1        1174        167   962.E-03
  IMPLANTE-2-COPY4-1        1175        158   985.E-03
  IMPLANTE-2-COPY4-1        1175        194   985.E-03
  IMPLANTE-2-COPY4-1        1176        159   779.E-03
  IMPLANTE-2-COPY4-1        1176        198   779.E-03
  IMPLANTE-2-COPY4-1        1177        159   826.E-03
  IMPLANTE-2-COPY4-1        1177        160   826.E-03
  IMPLANTE-2-COPY4-1        1178        160   883.E-03
  IMPLANTE-2-COPY4-1        1178        195   883.E-03
  IMPLANTE-2-COPY4-1        1179        160   836.E-03
  IMPLANTE-2-COPY4-1        1179        191   836.E-03
  IMPLANTE-2-COPY4-1        1180        161   902.E-03
  IMPLANTE-2-COPY4-1        1180        255   902.E-03
  IMPLANTE-2-COPY4-1        1181        161   898.E-03
  IMPLANTE-2-COPY4-1        1181        232   898.E-03
  IMPLANTE-2-COPY4-1        1182        161   936.E-03
  IMPLANTE-2-COPY4-1        1182        196   936.E-03
  IMPLANTE-2-COPY4-1        1183        161   939.E-03
  IMPLANTE-2-COPY4-1        1183        229   939.E-03
  IMPLANTE-2-COPY4-1        1184        162   930.E-03
  IMPLANTE-2-COPY4-1        1184        254   930.E-03
  IMPLANTE-2-COPY4-1        1185        162   937.E-03
  IMPLANTE-2-COPY4-1        1185        256   937.E-03
  IMPLANTE-2-COPY4-1        1186        162   962.E-03
  IMPLANTE-2-COPY4-1        1186        228   962.E-03
  IMPLANTE-2-COPY4-1        1187        162   955.E-03
  IMPLANTE-2-COPY4-1        1187        230   955.E-03
  IMPLANTE-2-COPY4-1        1188        163   638.E-03
  IMPLANTE-2-COPY4-1        1188        181   638.E-03
  IMPLANTE-2-COPY4-1        1189        163   580.E-03
  IMPLANTE-2-COPY4-1        1189        207   580.E-03
  IMPLANTE-2-COPY4-1        1190        164   488.E-03
  IMPLANTE-2-COPY4-1        1190        202   488.E-03
  IMPLANTE-2-COPY4-1        1191        164   589.E-03
  IMPLANTE-2-COPY4-1        1191        181   589.E-03
  IMPLANTE-2-COPY4-1        1192        165   257.E-03
  IMPLANTE-2-COPY4-1        1192        212   257.E-03
  IMPLANTE-2-COPY4-1        1193        165   266.E-03
  IMPLANTE-2-COPY4-1        1193        231   266.E-03
  IMPLANTE-2-COPY4-1        1194        165   303.E-03
  IMPLANTE-2-COPY4-1        1194        179   303.E-03
  IMPLANTE-2-COPY4-1        1195        166   431.E-03
  IMPLANTE-2-COPY4-1        1195        169   431.E-03
  IMPLANTE-2-COPY4-1        1196        167   960.E-03
  IMPLANTE-2-COPY4-1        1196        230   960.E-03
  IMPLANTE-2-COPY4-1        1197        168   914.E-03
  IMPLANTE-2-COPY4-1        1197        199   914.E-03
  IMPLANTE-2-COPY4-1        1198        170   720.E-03
  IMPLANTE-2-COPY4-1        1198        205   720.E-03
  IMPLANTE-2-COPY4-1        1199        171   294.E-03
  IMPLANTE-2-COPY4-1        1199        172   294.E-03
  IMPLANTE-2-COPY4-1        1200        173   443.E-03
  IMPLANTE-2-COPY4-1        1200        221   443.E-03
  IMPLANTE-2-COPY4-1        1201        173   510.E-03
  IMPLANTE-2-COPY4-1        1201        245   510.E-03
  IMPLANTE-2-COPY4-1        1202        174   570.E-03
  IMPLANTE-2-COPY4-1        1202        216   570.E-03
  IMPLANTE-2-COPY4-1        1203        175   859.E-03
  IMPLANTE-2-COPY4-1        1203        187   859.E-03
  IMPLANTE-2-COPY4-1        1204        176   393.E-03
  IMPLANTE-2-COPY4-1        1204        221   393.E-03
  IMPLANTE-2-COPY4-1        1205        176   410.E-03
  IMPLANTE-2-COPY4-1        1205        246   410.E-03
  IMPLANTE-2-COPY4-1        1206        176   357.E-03
  IMPLANTE-2-COPY4-1        1206        258   357.E-03
  IMPLANTE-2-COPY4-1        1207        176   341.E-03
  IMPLANTE-2-COPY4-1        1207        220   341.E-03
  IMPLANTE-2-COPY4-1        1208        177   677.E-03
  IMPLANTE-2-COPY4-1        1208        223   677.E-03
  IMPLANTE-2-COPY4-1        1209        177   696.E-03
  IMPLANTE-2-COPY4-1        1209        205   696.E-03
  IMPLANTE-2-COPY4-1        1210        178   240.E-03
  IMPLANTE-2-COPY4-1        1210        210   240.E-03
  IMPLANTE-2-COPY4-1        1211        178   233.E-03
  IMPLANTE-2-COPY4-1        1211        212   233.E-03
  IMPLANTE-2-COPY4-1        1212        178   238.E-03
  IMPLANTE-2-COPY4-1        1212        211   238.E-03
  IMPLANTE-2-COPY4-1        1213        179   319.E-03
  IMPLANTE-2-COPY4-1        1213        203   319.E-03
  IMPLANTE-2-COPY4-1        1214        180   254.E-03
  IMPLANTE-2-COPY4-1        1214        212   254.E-03
  IMPLANTE-2-COPY4-1        1215        182   313.E-03
  IMPLANTE-2-COPY4-1        1215        184   313.E-03
  IMPLANTE-2-COPY4-1        1216        182   293.E-03
  IMPLANTE-2-COPY4-1        1216        201   293.E-03
  IMPLANTE-2-COPY4-1        1217        182   267.E-03
  IMPLANTE-2-COPY4-1        1217        231   267.E-03
  IMPLANTE-2-COPY4-1        1218        182   287.E-03
  IMPLANTE-2-COPY4-1        1218        257   287.E-03
  IMPLANTE-2-COPY4-1        1219        183   422.E-03
  IMPLANTE-2-COPY4-1        1219        208   422.E-03
  IMPLANTE-2-COPY4-1        1220        183   446.E-03
  IMPLANTE-2-COPY4-1        1220        207   446.E-03
  IMPLANTE-2-COPY4-1        1221        183   369.E-03
  IMPLANTE-2-COPY4-1        1221        184   369.E-03
  IMPLANTE-2-COPY4-1        1222        183   343.E-03
  IMPLANTE-2-COPY4-1        1222        257   343.E-03
  IMPLANTE-2-COPY4-1        1223        185   669.E-03
  IMPLANTE-2-COPY4-1        1223        214   669.E-03
  IMPLANTE-2-COPY4-1        1224        185   681.E-03
  IMPLANTE-2-COPY4-1        1224        249   681.E-03
  IMPLANTE-2-COPY4-1        1225        185   627.E-03
  IMPLANTE-2-COPY4-1        1225        216   627.E-03
  IMPLANTE-2-COPY4-1        1226        186   815.E-03
  IMPLANTE-2-COPY4-1        1226        187   815.E-03
  IMPLANTE-2-COPY4-1        1227        186   767.E-03
  IMPLANTE-2-COPY4-1        1227        213   767.E-03
  IMPLANTE-2-COPY4-1        1228        187   807.E-03
  IMPLANTE-2-COPY4-1        1228        239   807.E-03
  IMPLANTE-2-COPY4-1        1229        188   645.E-03
  IMPLANTE-2-COPY4-1        1229        190   645.E-03
  IMPLANTE-2-COPY4-1        1230        188   658.E-03
  IMPLANTE-2-COPY4-1        1230        214   658.E-03
  IMPLANTE-2-COPY4-1        1231        189   837.E-03
  IMPLANTE-2-COPY4-1        1231        266   837.E-03
  IMPLANTE-2-COPY4-1        1232        189   864.E-03
  IMPLANTE-2-COPY4-1        1232        233   864.E-03
  IMPLANTE-2-COPY4-1        1233        189   823.E-03
  IMPLANTE-2-COPY4-1        1233        227   823.E-03
  IMPLANTE-2-COPY4-1        1234        190   687.E-03
  IMPLANTE-2-COPY4-1        1234        204   687.E-03
  IMPLANTE-2-COPY4-1        1235        190   697.E-03
  IMPLANTE-2-COPY4-1        1235        215   697.E-03
  IMPLANTE-2-COPY4-1        1236        191   803.E-03
  IMPLANTE-2-COPY4-1        1236        200   803.E-03
  IMPLANTE-2-COPY4-1        1237        191   792.E-03
  IMPLANTE-2-COPY4-1        1237        198   792.E-03
  IMPLANTE-2-COPY4-1        1238        191   848.E-03
  IMPLANTE-2-COPY4-1        1238        232   848.E-03
  IMPLANTE-2-COPY4-1        1239        192   925.E-03
  IMPLANTE-2-COPY4-1        1239        254   925.E-03
  IMPLANTE-2-COPY4-1        1240        192   944.E-03
  IMPLANTE-2-COPY4-1        1240        230   944.E-03
  IMPLANTE-2-COPY4-1        1241        192   918.E-03
  IMPLANTE-2-COPY4-1        1241        199   918.E-03
  IMPLANTE-2-COPY4-1        1242        193   791.E-03
  IMPLANTE-2-COPY4-1        1242        263   791.E-03
  IMPLANTE-2-COPY4-1        1243        193   746.E-03
  IMPLANTE-2-COPY4-1        1243        262   746.E-03
  IMPLANTE-2-COPY4-1        1244        193   740.E-03
  IMPLANTE-2-COPY4-1        1244        249   740.E-03
  IMPLANTE-2-COPY4-1        1245        194   971.E-03
  IMPLANTE-2-COPY4-1        1245        230   971.E-03
  IMPLANTE-2-COPY4-1        1246        194   985.E-03
  IMPLANTE-2-COPY4-1        1246        228   985.E-03
  IMPLANTE-2-COPY4-1        1247        195   932.E-03
  IMPLANTE-2-COPY4-1        1247        196   932.E-03
  IMPLANTE-2-COPY4-1        1248        195   890.E-03
  IMPLANTE-2-COPY4-1        1248        232   890.E-03
  IMPLANTE-2-COPY4-1        1249        196   971.E-03
  IMPLANTE-2-COPY4-1        1249        197   971.E-03
  IMPLANTE-2-COPY4-1        1250        197   971.E-03
  IMPLANTE-2-COPY4-1        1250        229   971.E-03
  IMPLANTE-2-COPY4-1        1251        198   746.E-03
  IMPLANTE-2-COPY4-1        1251        215   746.E-03
  IMPLANTE-2-COPY4-1        1252        198   733.E-03
  IMPLANTE-2-COPY4-1        1252        204   733.E-03
  IMPLANTE-2-COPY4-1        1253        199   893.E-03
  IMPLANTE-2-COPY4-1        1253        233   893.E-03
  IMPLANTE-2-COPY4-1        1254        200   814.E-03
  IMPLANTE-2-COPY4-1        1254        265   814.E-03
  IMPLANTE-2-COPY4-1        1255        200   768.E-03
  IMPLANTE-2-COPY4-1        1255        250   768.E-03
  IMPLANTE-2-COPY4-1        1256        200   758.E-03
  IMPLANTE-2-COPY4-1        1256        215   758.E-03
  IMPLANTE-2-COPY4-1        1257        201   310.E-03
  IMPLANTE-2-COPY4-1        1257        203   310.E-03
  IMPLANTE-2-COPY4-1        1258        203   281.E-03
  IMPLANTE-2-COPY4-1        1258        231   281.E-03
  IMPLANTE-2-COPY4-1        1259        205   649.E-03
  IMPLANTE-2-COPY4-1        1259        209   649.E-03
  IMPLANTE-2-COPY4-1        1260        205   626.E-03
  IMPLANTE-2-COPY4-1        1260        237   626.E-03
  IMPLANTE-2-COPY4-1        1261        208   406.E-03
  IMPLANTE-2-COPY4-1        1261        218   406.E-03
  IMPLANTE-2-COPY4-1        1262        208   492.E-03
  IMPLANTE-2-COPY4-1        1262        240   492.E-03
  IMPLANTE-2-COPY4-1        1263        209   569.E-03
  IMPLANTE-2-COPY4-1        1263        240   569.E-03
  IMPLANTE-2-COPY4-1        1264        210   270.E-03
  IMPLANTE-2-COPY4-1        1264        238   270.E-03
  IMPLANTE-2-COPY4-1        1265        210   291.E-03
  IMPLANTE-2-COPY4-1        1265        236   291.E-03
  IMPLANTE-2-COPY4-1        1266        210   256.E-03
  IMPLANTE-2-COPY4-1        1266        235   256.E-03
  IMPLANTE-2-COPY4-1        1267        211   275.E-03
  IMPLANTE-2-COPY4-1        1267        220   275.E-03
  IMPLANTE-2-COPY4-1        1268        211   263.E-03
  IMPLANTE-2-COPY4-1        1268        238   263.E-03
  IMPLANTE-2-COPY4-1        1269        212   238.E-03
  IMPLANTE-2-COPY4-1        1269        235   238.E-03
  IMPLANTE-2-COPY4-1        1270        213   712.E-03
  IMPLANTE-2-COPY4-1        1270        219   712.E-03
  IMPLANTE-2-COPY4-1        1271        213   701.E-03
  IMPLANTE-2-COPY4-1        1271        242   701.E-03
  IMPLANTE-2-COPY4-1        1272        213   755.E-03
  IMPLANTE-2-COPY4-1        1272        239   755.E-03
  IMPLANTE-2-COPY4-1        1273        214   709.E-03
  IMPLANTE-2-COPY4-1        1273        215   709.E-03
  IMPLANTE-2-COPY4-1        1274        214   721.E-03
  IMPLANTE-2-COPY4-1        1274        250   721.E-03
  IMPLANTE-2-COPY4-1        1275        216   638.E-03
  IMPLANTE-2-COPY4-1        1275        224   638.E-03
  IMPLANTE-2-COPY4-1        1276        217   601.E-03
  IMPLANTE-2-COPY4-1        1276        241   601.E-03
  IMPLANTE-2-COPY4-1        1277        217   611.E-03
  IMPLANTE-2-COPY4-1        1277        251   611.E-03
  IMPLANTE-2-COPY4-1        1278        218   331.E-03
  IMPLANTE-2-COPY4-1        1278        236   331.E-03
  IMPLANTE-2-COPY4-1        1279        218   412.E-03
  IMPLANTE-2-COPY4-1        1279        259   412.E-03
  IMPLANTE-2-COPY4-1        1280        218   328.E-03
  IMPLANTE-2-COPY4-1        1280        257   328.E-03
  IMPLANTE-2-COPY4-1        1281        219   666.E-03
  IMPLANTE-2-COPY4-1        1281        223   666.E-03
  IMPLANTE-2-COPY4-1        1282        219   654.E-03
  IMPLANTE-2-COPY4-1        1282        222   654.E-03
  IMPLANTE-2-COPY4-1        1283        220   302.E-03
  IMPLANTE-2-COPY4-1        1283        238   302.E-03
  IMPLANTE-2-COPY4-1        1284        221   458.E-03
  IMPLANTE-2-COPY4-1        1284        244   458.E-03
  IMPLANTE-2-COPY4-1        1285        222   583.E-03
  IMPLANTE-2-COPY4-1        1285        245   583.E-03
  IMPLANTE-2-COPY4-1        1286        222   644.E-03
  IMPLANTE-2-COPY4-1        1286        242   644.E-03
  IMPLANTE-2-COPY4-1        1287        222   593.E-03
  IMPLANTE-2-COPY4-1        1287        247   593.E-03
  IMPLANTE-2-COPY4-1        1288        223   614.E-03
  IMPLANTE-2-COPY4-1        1288        237   614.E-03
  IMPLANTE-2-COPY4-1        1289        223   603.E-03
  IMPLANTE-2-COPY4-1        1289        247   603.E-03
  IMPLANTE-2-COPY4-1        1290        224   690.E-03
  IMPLANTE-2-COPY4-1        1290        249   690.E-03
  IMPLANTE-2-COPY4-1        1291        224   699.E-03
  IMPLANTE-2-COPY4-1        1291        262   699.E-03
  IMPLANTE-2-COPY4-1        1292        224   647.E-03
  IMPLANTE-2-COPY4-1        1292        241   647.E-03
  IMPLANTE-2-COPY4-1        1293        225   706.E-03
  IMPLANTE-2-COPY4-1        1293        262   706.E-03
  IMPLANTE-2-COPY4-1        1294        225   715.E-03
  IMPLANTE-2-COPY4-1        1294        252   715.E-03
  IMPLANTE-2-COPY4-1        1295        225   666.E-03
  IMPLANTE-2-COPY4-1        1295        251   666.E-03
  IMPLANTE-2-COPY4-1        1296        225   656.E-03
  IMPLANTE-2-COPY4-1        1296        241   656.E-03
  IMPLANTE-2-COPY4-1        1297        226   800.E-03
  IMPLANTE-2-COPY4-1        1297        266   800.E-03
  IMPLANTE-2-COPY4-1        1298        226   758.E-03
  IMPLANTE-2-COPY4-1        1298        252   758.E-03
  IMPLANTE-2-COPY4-1        1299        226   753.E-03
  IMPLANTE-2-COPY4-1        1299        262   753.E-03
  IMPLANTE-2-COPY4-1        1300        226   795.E-03
  IMPLANTE-2-COPY4-1        1300        263   795.E-03
  IMPLANTE-2-COPY4-1        1301        227   793.E-03
  IMPLANTE-2-COPY4-1        1301        239   793.E-03
  IMPLANTE-2-COPY4-1        1302        227   771.E-03
  IMPLANTE-2-COPY4-1        1302        252   771.E-03
  IMPLANTE-2-COPY4-1        1303        227   802.E-03
  IMPLANTE-2-COPY4-1        1303        266   802.E-03
  IMPLANTE-2-COPY4-1        1304        228   969.E-03
  IMPLANTE-2-COPY4-1        1304        229   969.E-03
  IMPLANTE-2-COPY4-1        1305        229   938.E-03
  IMPLANTE-2-COPY4-1        1305        256   938.E-03
  IMPLANTE-2-COPY4-1        1306        231   248.E-03
  IMPLANTE-2-COPY4-1        1306        235   248.E-03
  IMPLANTE-2-COPY4-1        1307        232   856.E-03
  IMPLANTE-2-COPY4-1        1307        265   856.E-03
  IMPLANTE-2-COPY4-1        1308        233   869.E-03
  IMPLANTE-2-COPY4-1        1308        253   869.E-03
  IMPLANTE-2-COPY4-1        1309        233   898.E-03
  IMPLANTE-2-COPY4-1        1309        254   898.E-03
  IMPLANTE-2-COPY4-1        1310        234   870.E-03
  IMPLANTE-2-COPY4-1        1310        264   870.E-03
  IMPLANTE-2-COPY4-1        1311        234   831.E-03
  IMPLANTE-2-COPY4-1        1311        263   831.E-03
  IMPLANTE-2-COPY4-1        1312        234   867.E-03
  IMPLANTE-2-COPY4-1        1312        255   867.E-03
  IMPLANTE-2-COPY4-1        1313        235   270.E-03
  IMPLANTE-2-COPY4-1        1313        257   270.E-03
  IMPLANTE-2-COPY4-1        1314        236   324.E-03
  IMPLANTE-2-COPY4-1        1314        258   324.E-03
  IMPLANTE-2-COPY4-1        1315        236   366.E-03
  IMPLANTE-2-COPY4-1        1315        243   366.E-03
  IMPLANTE-2-COPY4-1        1316        237   558.E-03
  IMPLANTE-2-COPY4-1        1316        240   558.E-03
  IMPLANTE-2-COPY4-1        1317        237   545.E-03
  IMPLANTE-2-COPY4-1        1317        260   545.E-03
  IMPLANTE-2-COPY4-1        1318        238   311.E-03
  IMPLANTE-2-COPY4-1        1318        258   311.E-03
  IMPLANTE-2-COPY4-1        1319        239   741.E-03
  IMPLANTE-2-COPY4-1        1319        261   741.E-03
  IMPLANTE-2-COPY4-1        1320        240   480.E-03
  IMPLANTE-2-COPY4-1        1320        259   480.E-03
  IMPLANTE-2-COPY4-1        1321        242   632.E-03
  IMPLANTE-2-COPY4-1        1321        248   632.E-03
  IMPLANTE-2-COPY4-1        1322        242   690.E-03
  IMPLANTE-2-COPY4-1        1322        261   690.E-03
  IMPLANTE-2-COPY4-1        1323        243   414.E-03
  IMPLANTE-2-COPY4-1        1323        259   414.E-03
  IMPLANTE-2-COPY4-1        1324        243   369.E-03
  IMPLANTE-2-COPY4-1        1324        258   369.E-03
  IMPLANTE-2-COPY4-1        1325        243   418.E-03
  IMPLANTE-2-COPY4-1        1325        246   418.E-03
  IMPLANTE-2-COPY4-1        1326        244   520.E-03
  IMPLANTE-2-COPY4-1        1326        245   520.E-03
  IMPLANTE-2-COPY4-1        1327        244   531.E-03
  IMPLANTE-2-COPY4-1        1327        247   531.E-03
  IMPLANTE-2-COPY4-1        1328        244   468.E-03
  IMPLANTE-2-COPY4-1        1328        246   468.E-03
  IMPLANTE-2-COPY4-1        1329        245   573.E-03
  IMPLANTE-2-COPY4-1        1329        248   573.E-03
  IMPLANTE-2-COPY4-1        1330        246   476.E-03
  IMPLANTE-2-COPY4-1        1330        260   476.E-03
  IMPLANTE-2-COPY4-1        1331        247   540.E-03
  IMPLANTE-2-COPY4-1        1331        260   540.E-03
  IMPLANTE-2-COPY4-1        1332        248   622.E-03
  IMPLANTE-2-COPY4-1        1332        251   622.E-03
  IMPLANTE-2-COPY4-1        1333        249   731.E-03
  IMPLANTE-2-COPY4-1        1333        250   731.E-03
  IMPLANTE-2-COPY4-1        1334        251   676.E-03
  IMPLANTE-2-COPY4-1        1334        261   676.E-03
  IMPLANTE-2-COPY4-1        1335        252   727.E-03
  IMPLANTE-2-COPY4-1        1335        261   727.E-03
  IMPLANTE-2-COPY4-1        1336        253   835.E-03
  IMPLANTE-2-COPY4-1        1336        263   835.E-03
  IMPLANTE-2-COPY4-1        1337        253   869.E-03
  IMPLANTE-2-COPY4-1        1337        264   869.E-03
  IMPLANTE-2-COPY4-1        1338        253   834.E-03
  IMPLANTE-2-COPY4-1        1338        266   834.E-03
  IMPLANTE-2-COPY4-1        1339        254   903.E-03
  IMPLANTE-2-COPY4-1        1339        264   903.E-03
  IMPLANTE-2-COPY4-1        1340        255   905.E-03
  IMPLANTE-2-COPY4-1        1340        256   905.E-03
  IMPLANTE-2-COPY4-1        1341        255   864.E-03
  IMPLANTE-2-COPY4-1        1341        265   864.E-03
  IMPLANTE-2-COPY4-1        1342        256   904.E-03
  IMPLANTE-2-COPY4-1        1342        264   904.E-03
  IMPLANTE-2-COPY4-1        1343        259   482.E-03
  IMPLANTE-2-COPY4-1        1343        260   482.E-03
  IMPLANTE-2-COPY4-1        1344        267   533.E-03
  IMPLANTE-2-COPY4-1        1345        269   942.E-03
  IMPLANTE-2-COPY4-1        1345        276   942.E-03
  IMPLANTE-2-COPY4-1        1346        269         1.
  IMPLANTE-2-COPY4-1        1346        271         1.
  IMPLANTE-2-COPY4-1        1347        269   972.E-03
  IMPLANTE-2-COPY4-1        1347        451   972.E-03
  IMPLANTE-2-COPY4-1        1348        270         1.
  IMPLANTE-2-COPY4-1        1348        289         1.
  IMPLANTE-2-COPY4-1        1349        270         1.
  IMPLANTE-2-COPY4-1        1349        402         1.
  IMPLANTE-2-COPY4-1        1350        270         1.
  IMPLANTE-2-COPY4-1        1350        327         1.
  IMPLANTE-2-COPY4-1        1351        271         1.
  IMPLANTE-2-COPY4-1        1351        346         1.
  IMPLANTE-2-COPY4-1        1352        271         1.
  IMPLANTE-2-COPY4-1        1352        426         1.
  IMPLANTE-2-COPY4-1        1353        272   671.E-03
  IMPLANTE-2-COPY4-1        1353        299   671.E-03
  IMPLANTE-2-COPY4-1        1354        272   692.E-03
  IMPLANTE-2-COPY4-1        1354        372   692.E-03
  IMPLANTE-2-COPY4-1        1355        272   626.E-03
  IMPLANTE-2-COPY4-1        1355        338   626.E-03
  IMPLANTE-2-COPY4-1        1356        272   604.E-03
  IMPLANTE-2-COPY4-1        1357        273   736.E-03
  IMPLANTE-2-COPY4-1        1357        307   736.E-03
  IMPLANTE-2-COPY4-1        1358        273   556.E-03
  IMPLANTE-2-COPY4-1        1358        338   556.E-03
  IMPLANTE-2-COPY4-1        1359        273   609.E-03
  IMPLANTE-2-COPY4-1        1359        362   609.E-03
  IMPLANTE-2-COPY4-1        1360        274         1.
  IMPLANTE-2-COPY4-1        1360        293         1.
  IMPLANTE-2-COPY4-1        1361        274         1.
  IMPLANTE-2-COPY4-1        1361        360         1.
  IMPLANTE-2-COPY4-1        1362        274         1.
  IMPLANTE-2-COPY4-1        1362        291         1.
  IMPLANTE-2-COPY4-1        1363        275   300.E-03
  IMPLANTE-2-COPY4-1        1364        275   548.E-03
  IMPLANTE-2-COPY4-1        1364        358   548.E-03
  IMPLANTE-2-COPY4-1        1365        275         1.
  IMPLANTE-2-COPY4-1        1365        357         1.
  IMPLANTE-2-COPY4-1        1366        275   728.E-03
  IMPLANTE-2-COPY4-1        1366        288   728.E-03
  IMPLANTE-2-COPY4-1        1367        276   840.E-03
  IMPLANTE-2-COPY4-1        1367        450   840.E-03
  IMPLANTE-2-COPY4-1        1368        276   763.E-03
  IMPLANTE-2-COPY4-1        1368        284   763.E-03
  IMPLANTE-2-COPY4-1        1369        277   763.E-03
  IMPLANTE-2-COPY4-1        1369        430   763.E-03
  IMPLANTE-2-COPY4-1        1370        277   794.E-03
  IMPLANTE-2-COPY4-1        1370        353   794.E-03
  IMPLANTE-2-COPY4-1        1371        277   816.E-03
  IMPLANTE-2-COPY4-1        1371        354   816.E-03
  IMPLANTE-2-COPY4-1        1372        277   794.E-03
  IMPLANTE-2-COPY4-1        1372        345   794.E-03
  IMPLANTE-2-COPY4-1        1373        278   823.E-03
  IMPLANTE-2-COPY4-1        1373        345   823.E-03
  IMPLANTE-2-COPY4-1        1374        278   854.E-03
  IMPLANTE-2-COPY4-1        1374        354   854.E-03
  IMPLANTE-2-COPY4-1        1375        278   850.E-03
  IMPLANTE-2-COPY4-1        1375        280   850.E-03
  IMPLANTE-2-COPY4-1        1376        279   959.E-03
  IMPLANTE-2-COPY4-1        1376        451   959.E-03
  IMPLANTE-2-COPY4-1        1377        279         1.
  IMPLANTE-2-COPY4-1        1377        545         1.
  IMPLANTE-2-COPY4-1        1378        279   967.E-03
  IMPLANTE-2-COPY4-1        1378        528   967.E-03
  IMPLANTE-2-COPY4-1        1379        279   910.E-03
  IMPLANTE-2-COPY4-1        1379        526   910.E-03
  IMPLANTE-2-COPY4-1        1380        280   897.E-03
  IMPLANTE-2-COPY4-1        1380        452   897.E-03
  IMPLANTE-2-COPY4-1        1381        280   946.E-03
  IMPLANTE-2-COPY4-1        1381        281   946.E-03
  IMPLANTE-2-COPY4-1        1382        281   854.E-03
  IMPLANTE-2-COPY4-1        1382        445   854.E-03
  IMPLANTE-2-COPY4-1        1383        281   873.E-03
  IMPLANTE-2-COPY4-1        1383        333   873.E-03
  IMPLANTE-2-COPY4-1        1384        282   320.E-03
  IMPLANTE-2-COPY4-1        1385        282   325.E-03
  IMPLANTE-2-COPY4-1        1385        396   325.E-03
  IMPLANTE-2-COPY4-1        1386        282   331.E-03
  IMPLANTE-2-COPY4-1        1386        316   331.E-03
  IMPLANTE-2-COPY4-1        1387        282   328.E-03
  IMPLANTE-2-COPY4-1        1387        332   328.E-03
  IMPLANTE-2-COPY4-1        1388        283   404.E-03
  IMPLANTE-2-COPY4-1        1388        314   404.E-03
  IMPLANTE-2-COPY4-1        1389        283   452.E-03
  IMPLANTE-2-COPY4-1        1390        283   472.E-03
  IMPLANTE-2-COPY4-1        1390        329   472.E-03
  IMPLANTE-2-COPY4-1        1391        283   423.E-03
  IMPLANTE-2-COPY4-1        1391        334   423.E-03
  IMPLANTE-2-COPY4-1        1392        284   754.E-03
  IMPLANTE-2-COPY4-1        1392        345   754.E-03
  IMPLANTE-2-COPY4-1        1393        284   750.E-03
  IMPLANTE-2-COPY4-1        1393        430   750.E-03
  IMPLANTE-2-COPY4-1        1394        285   535.E-03
  IMPLANTE-2-COPY4-1        1394        470   535.E-03
  IMPLANTE-2-COPY4-1        1395        285   506.E-03
  IMPLANTE-2-COPY4-1        1395        457   506.E-03
  IMPLANTE-2-COPY4-1        1396        285   450.E-03
  IMPLANTE-2-COPY4-1        1396        356   450.E-03
  IMPLANTE-2-COPY4-1        1397        285   480.E-03
  IMPLANTE-2-COPY4-1        1397        440   480.E-03
  IMPLANTE-2-COPY4-1        1398        286         2.
  IMPLANTE-2-COPY4-1        1398        525         2.
  IMPLANTE-2-COPY4-1        1399        286         2.
  IMPLANTE-2-COPY4-1        1399        463         2.
  IMPLANTE-2-COPY4-1        1400        286         2.
  IMPLANTE-2-COPY4-1        1400        442         2.
  IMPLANTE-2-COPY4-1        1401        286         1.
  IMPLANTE-2-COPY4-1        1401        455         1.
  IMPLANTE-2-COPY4-1        1402        287   272.E-03
  IMPLANTE-2-COPY4-1        1403        287   337.E-03
  IMPLANTE-2-COPY4-1        1403        324   337.E-03
  IMPLANTE-2-COPY4-1        1404        287   417.E-03
  IMPLANTE-2-COPY4-1        1404        437   417.E-03
  IMPLANTE-2-COPY4-1        1405        287   350.E-03
  IMPLANTE-2-COPY4-1        1405        405   350.E-03
  IMPLANTE-2-COPY4-1        1406        288         2.
  IMPLANTE-2-COPY4-1        1406        425         2.
  IMPLANTE-2-COPY4-1        1407        288         1.
  IMPLANTE-2-COPY4-1        1407        387         1.
  IMPLANTE-2-COPY4-1        1408        288   441.E-03
  IMPLANTE-2-COPY4-1        1409        289         1.
  IMPLANTE-2-COPY4-1        1409        347         1.
  IMPLANTE-2-COPY4-1        1410        289         1.
  IMPLANTE-2-COPY4-1        1410        348         1.
  IMPLANTE-2-COPY4-1        1411        290         2.
  IMPLANTE-2-COPY4-1        1411        463         2.
  IMPLANTE-2-COPY4-1        1412        290         2.
  IMPLANTE-2-COPY4-1        1412        292         2.
  IMPLANTE-2-COPY4-1        1413        290         2.
  IMPLANTE-2-COPY4-1        1413        425         2.
  IMPLANTE-2-COPY4-1        1414        290         2.
  IMPLANTE-2-COPY4-1        1414        442         2.
  IMPLANTE-2-COPY4-1        1415        291         1.
  IMPLANTE-2-COPY4-1        1415        359         1.
  IMPLANTE-2-COPY4-1        1416        291         1.
  IMPLANTE-2-COPY4-1        1416        347         1.
  IMPLANTE-2-COPY4-1        1417        292         3.
  IMPLANTE-2-COPY4-1        1417        361         3.
  IMPLANTE-2-COPY4-1        1418        292         3.
  IMPLANTE-2-COPY4-1        1418        589         3.
  IMPLANTE-2-COPY4-1        1419        292         3.
  IMPLANTE-2-COPY4-1        1419        590         3.
  IMPLANTE-2-COPY4-1        1420        293   841.E-03
  IMPLANTE-2-COPY4-1        1420        306   841.E-03
  IMPLANTE-2-COPY4-1        1421        293   913.E-03
  IMPLANTE-2-COPY4-1        1421        456   913.E-03
  IMPLANTE-2-COPY4-1        1422        294   645.E-03
  IMPLANTE-2-COPY4-1        1423        294         2.
  IMPLANTE-2-COPY4-1        1423        343         2.
  IMPLANTE-2-COPY4-1        1424        294         2.
  IMPLANTE-2-COPY4-1        1424        377         2.
  IMPLANTE-2-COPY4-1        1425        294   915.E-03
  IMPLANTE-2-COPY4-1        1425        371   915.E-03
  IMPLANTE-2-COPY4-1        1426        295   599.E-03
  IMPLANTE-2-COPY4-1        1426        296   599.E-03
  IMPLANTE-2-COPY4-1        1427        295   620.E-03
  IMPLANTE-2-COPY4-1        1427        352   620.E-03
  IMPLANTE-2-COPY4-1        1428        295   631.E-03
  IMPLANTE-2-COPY4-1        1428        306   631.E-03
  IMPLANTE-2-COPY4-1        1429        296   664.E-03
  IMPLANTE-2-COPY4-1        1429        307   664.E-03
  IMPLANTE-2-COPY4-1        1430        296   648.E-03
  IMPLANTE-2-COPY4-1        1430        464   648.E-03
  IMPLANTE-2-COPY4-1        1431        297         1.
  IMPLANTE-2-COPY4-1        1431        513         1.
  IMPLANTE-2-COPY4-1        1432        297         1.
  IMPLANTE-2-COPY4-1        1432        423         1.
  IMPLANTE-2-COPY4-1        1433        297         1.
  IMPLANTE-2-COPY4-1        1433        370         1.
  IMPLANTE-2-COPY4-1        1434        297         1.
  IMPLANTE-2-COPY4-1        1434        568         1.
  IMPLANTE-2-COPY4-1        1435        298   695.E-03
  IMPLANTE-2-COPY4-1        1435        419   695.E-03
  IMPLANTE-2-COPY4-1        1436        298   724.E-03
  IMPLANTE-2-COPY4-1        1436        486   724.E-03
  IMPLANTE-2-COPY4-1        1437        298   707.E-03
  IMPLANTE-2-COPY4-1        1437        310   707.E-03
  IMPLANTE-2-COPY4-1        1438        298   676.E-03
  IMPLANTE-2-COPY4-1        1438        309   676.E-03
  IMPLANTE-2-COPY4-1        1439        299   730.E-03
  IMPLANTE-2-COPY4-1        1439        301   730.E-03
  IMPLANTE-2-COPY4-1        1440        299   736.E-03
  IMPLANTE-2-COPY4-1        1440        340   736.E-03
  IMPLANTE-2-COPY4-1        1441        299   663.E-03
  IMPLANTE-2-COPY4-1        1442        300   783.E-03
  IMPLANTE-2-COPY4-1        1442        447   783.E-03
  IMPLANTE-2-COPY4-1        1443        300   767.E-03
  IMPLANTE-2-COPY4-1        1443        311   767.E-03
  IMPLANTE-2-COPY4-1        1444        300   753.E-03
  IMPLANTE-2-COPY4-1        1444        417   753.E-03
  IMPLANTE-2-COPY4-1        1445        300   768.E-03
  IMPLANTE-2-COPY4-1        1445        339   768.E-03
  IMPLANTE-2-COPY4-1        1446        301   810.E-03
  IMPLANTE-2-COPY4-1        1446        312   810.E-03
  IMPLANTE-2-COPY4-1        1447        301   789.E-03
  IMPLANTE-2-COPY4-1        1447        416   789.E-03
  IMPLANTE-2-COPY4-1        1448        301   742.E-03
  IMPLANTE-2-COPY4-1        1449        302   886.E-03
  IMPLANTE-2-COPY4-1        1449        383   886.E-03
  IMPLANTE-2-COPY4-1        1450        302   927.E-03
  IMPLANTE-2-COPY4-1        1450        312   927.E-03
  IMPLANTE-2-COPY4-1        1451        302   976.E-03
  IMPLANTE-2-COPY4-1        1452        302   929.E-03
  IMPLANTE-2-COPY4-1        1453        303         4.
  IMPLANTE-2-COPY4-1        1453        305         4.
  IMPLANTE-2-COPY4-1        1454        303         4.
  IMPLANTE-2-COPY4-1        1454        369         4.
  IMPLANTE-2-COPY4-1        1455        303         4.
  IMPLANTE-2-COPY4-1        1455        608         4.
  IMPLANTE-2-COPY4-1        1456        303         4.
  IMPLANTE-2-COPY4-1        1456        561         4.
  IMPLANTE-2-COPY4-1        1457        304         2.
  IMPLANTE-2-COPY4-1        1457        378         2.
  IMPLANTE-2-COPY4-1        1458        304         2.
  IMPLANTE-2-COPY4-1        1458        510         2.
  IMPLANTE-2-COPY4-1        1459        304         2.
  IMPLANTE-2-COPY4-1        1459        591         2.
  IMPLANTE-2-COPY4-1        1460        304         2.
  IMPLANTE-2-COPY4-1        1460        370         2.
  IMPLANTE-2-COPY4-1        1461        305         3.
  IMPLANTE-2-COPY4-1        1461        377         3.
  IMPLANTE-2-COPY4-1        1462        305         3.
  IMPLANTE-2-COPY4-1        1462        343         3.
  IMPLANTE-2-COPY4-1        1463        305         3.
  IMPLANTE-2-COPY4-1        1463        479         3.
  IMPLANTE-2-COPY4-1        1464        306   727.E-03
  IMPLANTE-2-COPY4-1        1464        363   727.E-03
  IMPLANTE-2-COPY4-1        1465        307   694.E-03
  IMPLANTE-2-COPY4-1        1465        364   694.E-03
  IMPLANTE-2-COPY4-1        1466        308   855.E-03
  IMPLANTE-2-COPY4-1        1466        382   855.E-03
  IMPLANTE-2-COPY4-1        1467        308   924.E-03
  IMPLANTE-2-COPY4-1        1467        465   924.E-03
  IMPLANTE-2-COPY4-1        1468        308   775.E-03
  IMPLANTE-2-COPY4-1        1468        414   775.E-03
  IMPLANTE-2-COPY4-1        1469        308   711.E-03
  IMPLANTE-2-COPY4-1        1469        342   711.E-03
  IMPLANTE-2-COPY4-1        1470        309   619.E-03
  IMPLANTE-2-COPY4-1        1471        309   631.E-03
  IMPLANTE-2-COPY4-1        1471        373   631.E-03
  IMPLANTE-2-COPY4-1        1472        309   663.E-03
  IMPLANTE-2-COPY4-1        1472        385   663.E-03
  IMPLANTE-2-COPY4-1        1473        310   732.E-03
  IMPLANTE-2-COPY4-1        1473        446   732.E-03
  IMPLANTE-2-COPY4-1        1474        310   726.E-03
  IMPLANTE-2-COPY4-1        1474        417   726.E-03
  IMPLANTE-2-COPY4-1        1475        310   701.E-03
  IMPLANTE-2-COPY4-1        1475        385   701.E-03
  IMPLANTE-2-COPY4-1        1476        311   785.E-03
  IMPLANTE-2-COPY4-1        1476        384   785.E-03
  IMPLANTE-2-COPY4-1        1477        311   761.E-03
  IMPLANTE-2-COPY4-1        1478        311   741.E-03
  IMPLANTE-2-COPY4-1        1478        341   741.E-03
  IMPLANTE-2-COPY4-1        1479        312   848.E-03
  IMPLANTE-2-COPY4-1        1479        376   848.E-03
  IMPLANTE-2-COPY4-1        1480        312   872.E-03
  IMPLANTE-2-COPY4-1        1481        313   175.E-03
  IMPLANTE-2-COPY4-1        1482        313   237.E-03
  IMPLANTE-2-COPY4-1        1483        313   340.E-03
  IMPLANTE-2-COPY4-1        1483        314   340.E-03
  IMPLANTE-2-COPY4-1        1484        313   293.E-03
  IMPLANTE-2-COPY4-1        1484        315   293.E-03
  IMPLANTE-2-COPY4-1        1485        314   350.E-03
  IMPLANTE-2-COPY4-1        1485        407   350.E-03
  IMPLANTE-2-COPY4-1        1486        314   375.E-03
  IMPLANTE-2-COPY4-1        1487        315   314.E-03
  IMPLANTE-2-COPY4-1        1487        407   314.E-03
  IMPLANTE-2-COPY4-1        1488        315   308.E-03
  IMPLANTE-2-COPY4-1        1488        396   308.E-03
  IMPLANTE-2-COPY4-1        1489        315   285.E-03
  IMPLANTE-2-COPY4-1        1490        316   359.E-03
  IMPLANTE-2-COPY4-1        1490        504   359.E-03
  IMPLANTE-2-COPY4-1        1491        316   346.E-03
  IMPLANTE-2-COPY4-1        1491        435   346.E-03
  IMPLANTE-2-COPY4-1        1492        316   345.E-03
  IMPLANTE-2-COPY4-1        1492        542   345.E-03
  IMPLANTE-2-COPY4-1        1493        317   420.E-03
  IMPLANTE-2-COPY4-1        1493        535   420.E-03
  IMPLANTE-2-COPY4-1        1494        317   402.E-03
  IMPLANTE-2-COPY4-1        1494        444   402.E-03
  IMPLANTE-2-COPY4-1        1495        317   377.E-03
  IMPLANTE-2-COPY4-1        1495        428   377.E-03
  IMPLANTE-2-COPY4-1        1496        317   396.E-03
  IMPLANTE-2-COPY4-1        1496        500   396.E-03
  IMPLANTE-2-COPY4-1        1497        318   357.E-03
  IMPLANTE-2-COPY4-1        1497        428   357.E-03
  IMPLANTE-2-COPY4-1        1498        318   338.E-03
  IMPLANTE-2-COPY4-1        1498        400   338.E-03
  IMPLANTE-2-COPY4-1        1499        318   354.E-03
  IMPLANTE-2-COPY4-1        1499        399   354.E-03
  IMPLANTE-2-COPY4-1        1500        318   371.E-03
  IMPLANTE-2-COPY4-1        1500        500   371.E-03
  IMPLANTE-2-COPY4-1        1501        319   363.E-03
  IMPLANTE-2-COPY4-1        1501        408   363.E-03
  IMPLANTE-2-COPY4-1        1502        319   387.E-03
  IMPLANTE-2-COPY4-1        1502        453   387.E-03
  IMPLANTE-2-COPY4-1        1503        319   366.E-03
  IMPLANTE-2-COPY4-1        1503        431   366.E-03
  IMPLANTE-2-COPY4-1        1504        319   342.E-03
  IMPLANTE-2-COPY4-1        1504        406   342.E-03
  IMPLANTE-2-COPY4-1        1505        320   341.E-03
  IMPLANTE-2-COPY4-1        1505        408   341.E-03
  IMPLANTE-2-COPY4-1        1506        320   322.E-03
  IMPLANTE-2-COPY4-1        1506        406   322.E-03
  IMPLANTE-2-COPY4-1        1507        320   303.E-03
  IMPLANTE-2-COPY4-1        1508        320   323.E-03
  IMPLANTE-2-COPY4-1        1508        397   323.E-03
  IMPLANTE-2-COPY4-1        1509        321   350.E-03
  IMPLANTE-2-COPY4-1        1509        409   350.E-03
  IMPLANTE-2-COPY4-1        1510        321   319.E-03
  IMPLANTE-2-COPY4-1        1510        349   319.E-03
  IMPLANTE-2-COPY4-1        1511        321   287.E-03
  IMPLANTE-2-COPY4-1        1512        321   319.E-03
  IMPLANTE-2-COPY4-1        1512        394   319.E-03
  IMPLANTE-2-COPY4-1        1513        322   620.E-03
  IMPLANTE-2-COPY4-1        1513        495   620.E-03
  IMPLANTE-2-COPY4-1        1514        322   588.E-03
  IMPLANTE-2-COPY4-1        1514        323   588.E-03
  IMPLANTE-2-COPY4-1        1515        322   511.E-03
  IMPLANTE-2-COPY4-1        1515        401   511.E-03
  IMPLANTE-2-COPY4-1        1516        322   541.E-03
  IMPLANTE-2-COPY4-1        1516        457   541.E-03
  IMPLANTE-2-COPY4-1        1517        323   684.E-03
  IMPLANTE-2-COPY4-1        1517        524   684.E-03
  IMPLANTE-2-COPY4-1        1518        323   652.E-03
  IMPLANTE-2-COPY4-1        1518        443   652.E-03
  IMPLANTE-2-COPY4-1        1519        323   559.E-03
  IMPLANTE-2-COPY4-1        1519        437   559.E-03
  IMPLANTE-2-COPY4-1        1520        324   392.E-03
  IMPLANTE-2-COPY4-1        1520        401   392.E-03
  IMPLANTE-2-COPY4-1        1521        324   274.E-03
  IMPLANTE-2-COPY4-1        1522        324   329.E-03
  IMPLANTE-2-COPY4-1        1522        389   329.E-03
  IMPLANTE-2-COPY4-1        1523        325         1.
  IMPLANTE-2-COPY4-1        1523        455         1.
  IMPLANTE-2-COPY4-1        1524        325         1.
  IMPLANTE-2-COPY4-1        1524        442         1.
  IMPLANTE-2-COPY4-1        1525        325         1.
  IMPLANTE-2-COPY4-1        1525        388         1.
  IMPLANTE-2-COPY4-1        1526        325         1.
  IMPLANTE-2-COPY4-1        1526        326         1.
  IMPLANTE-2-COPY4-1        1527        326   874.E-03
  IMPLANTE-2-COPY4-1        1527        391   874.E-03
  IMPLANTE-2-COPY4-1        1528        326   872.E-03
  IMPLANTE-2-COPY4-1        1528        404   872.E-03
  IMPLANTE-2-COPY4-1        1529        326         1.
  IMPLANTE-2-COPY4-1        1529        438         1.
  IMPLANTE-2-COPY4-1        1530        327         1.
  IMPLANTE-2-COPY4-1        1530        454         1.
  IMPLANTE-2-COPY4-1        1531        327         1.
  IMPLANTE-2-COPY4-1        1531        346         1.
  IMPLANTE-2-COPY4-1        1532        328         1.
  IMPLANTE-2-COPY4-1        1532        454         1.
  IMPLANTE-2-COPY4-1        1533        328         1.
  IMPLANTE-2-COPY4-1        1533        522         1.
  IMPLANTE-2-COPY4-1        1534        328         1.
  IMPLANTE-2-COPY4-1        1534        426         1.
  IMPLANTE-2-COPY4-1        1535        328         1.
  IMPLANTE-2-COPY4-1        1535        346         1.
  IMPLANTE-2-COPY4-1        1536        329   533.E-03
  IMPLANTE-2-COPY4-1        1536        330   533.E-03
  IMPLANTE-2-COPY4-1        1537        329   487.E-03
  IMPLANTE-2-COPY4-1        1537        398   487.E-03
  IMPLANTE-2-COPY4-1        1538        329   519.E-03
  IMPLANTE-2-COPY4-1        1539        330   563.E-03
  IMPLANTE-2-COPY4-1        1539        331   563.E-03
  IMPLANTE-2-COPY4-1        1540        330   521.E-03
  IMPLANTE-2-COPY4-1        1540        410   521.E-03
  IMPLANTE-2-COPY4-1        1541        330   576.E-03
  IMPLANTE-2-COPY4-1        1542        331   618.E-03
  IMPLANTE-2-COPY4-1        1543        331   543.E-03
  IMPLANTE-2-COPY4-1        1543        333   543.E-03
  IMPLANTE-2-COPY4-1        1544        331   489.E-03
  IMPLANTE-2-COPY4-1        1544        335   489.E-03
  IMPLANTE-2-COPY4-1        1545        332   335.E-03
  IMPLANTE-2-COPY4-1        1545        435   335.E-03
  IMPLANTE-2-COPY4-1        1546        332   327.E-03
  IMPLANTE-2-COPY4-1        1546        355   327.E-03
  IMPLANTE-2-COPY4-1        1547        332   319.E-03
  IMPLANTE-2-COPY4-1        1548        333   668.E-03
  IMPLANTE-2-COPY4-1        1548        412   668.E-03
  IMPLANTE-2-COPY4-1        1549        334   439.E-03
  IMPLANTE-2-COPY4-1        1549        398   439.E-03
  IMPLANTE-2-COPY4-1        1550        334   396.E-03
  IMPLANTE-2-COPY4-1        1550        336   396.E-03
  IMPLANTE-2-COPY4-1        1551        334   377.E-03
  IMPLANTE-2-COPY4-1        1551        407   377.E-03
  IMPLANTE-2-COPY4-1        1552        335   482.E-03
  IMPLANTE-2-COPY4-1        1552        410   482.E-03
  IMPLANTE-2-COPY4-1        1553        335   532.E-03
  IMPLANTE-2-COPY4-1        1553        412   532.E-03
  IMPLANTE-2-COPY4-1        1554        335   494.E-03
  IMPLANTE-2-COPY4-1        1554        686   494.E-03
  IMPLANTE-2-COPY4-1        1555        336   408.E-03
  IMPLANTE-2-COPY4-1        1555        505   408.E-03
  IMPLANTE-2-COPY4-1        1556        336   378.E-03
  IMPLANTE-2-COPY4-1        1556        504   378.E-03
  IMPLANTE-2-COPY4-1        1557        336   364.E-03
  IMPLANTE-2-COPY4-1        1557        542   364.E-03
  IMPLANTE-2-COPY4-1        1558        337   653.E-03
  IMPLANTE-2-COPY4-1        1558        375   653.E-03
  IMPLANTE-2-COPY4-1        1559        337   589.E-03
  IMPLANTE-2-COPY4-1        1559        381   589.E-03
  IMPLANTE-2-COPY4-1        1560        337   516.E-03
  IMPLANTE-2-COPY4-1        1561        337   580.E-03
  IMPLANTE-2-COPY4-1        1561        368   580.E-03
  IMPLANTE-2-COPY4-1        1562        338   638.E-03
  IMPLANTE-2-COPY4-1        1563        338   584.E-03
  IMPLANTE-2-COPY4-1        1563        418   584.E-03
  IMPLANTE-2-COPY4-1        1564        339   749.E-03
  IMPLANTE-2-COPY4-1        1564        420   749.E-03
  IMPLANTE-2-COPY4-1        1565        339   740.E-03
  IMPLANTE-2-COPY4-1        1565        487   740.E-03
  IMPLANTE-2-COPY4-1        1566        339   761.E-03
  IMPLANTE-2-COPY4-1        1566        340   761.E-03
  IMPLANTE-2-COPY4-1        1567        340   772.E-03
  IMPLANTE-2-COPY4-1        1567        416   772.E-03
  IMPLANTE-2-COPY4-1        1568        340   727.E-03
  IMPLANTE-2-COPY4-1        1568        372   727.E-03
  IMPLANTE-2-COPY4-1        1569        341   731.E-03
  IMPLANTE-2-COPY4-1        1569        417   731.E-03
  IMPLANTE-2-COPY4-1        1570        341   711.E-03
  IMPLANTE-2-COPY4-1        1571        341   700.E-03
  IMPLANTE-2-COPY4-1        1571        385   700.E-03
  IMPLANTE-2-COPY4-1        1572        342   582.E-03
  IMPLANTE-2-COPY4-1        1572        368   582.E-03
  IMPLANTE-2-COPY4-1        1573        342   474.E-03
  IMPLANTE-2-COPY4-1        1574        342   600.E-03
  IMPLANTE-2-COPY4-1        1574        374   600.E-03
  IMPLANTE-2-COPY4-1        1575        343         1.
  IMPLANTE-2-COPY4-1        1576        343         4.
  IMPLANTE-2-COPY4-1        1576        369         4.
  IMPLANTE-2-COPY4-1        1577        344   344.E-03
  IMPLANTE-2-COPY4-1        1577        395   344.E-03
  IMPLANTE-2-COPY4-1        1578        344   319.E-03
  IMPLANTE-2-COPY4-1        1578        394   319.E-03
  IMPLANTE-2-COPY4-1        1579        344   294.E-03
  IMPLANTE-2-COPY4-1        1580        344   320.E-03
  IMPLANTE-2-COPY4-1        1580        390   320.E-03
  IMPLANTE-2-COPY4-1        1581        347         1.
  IMPLANTE-2-COPY4-1        1581        424         1.
  IMPLANTE-2-COPY4-1        1582        348         1.
  IMPLANTE-2-COPY4-1        1582        424         1.
  IMPLANTE-2-COPY4-1        1583        348         1.
  IMPLANTE-2-COPY4-1        1583        547         1.
  IMPLANTE-2-COPY4-1        1584        348         1.
  IMPLANTE-2-COPY4-1        1584        402         1.
  IMPLANTE-2-COPY4-1        1585        349   356.E-03
  IMPLANTE-2-COPY4-1        1585        393   356.E-03
  IMPLANTE-2-COPY4-1        1586        349   320.E-03
  IMPLANTE-2-COPY4-1        1586        403   320.E-03
  IMPLANTE-2-COPY4-1        1587        349   283.E-03
  IMPLANTE-2-COPY4-1        1588        350   272.E-03
  IMPLANTE-2-COPY4-1        1589        350   403.E-03
  IMPLANTE-2-COPY4-1        1589        392   403.E-03
  IMPLANTE-2-COPY4-1        1590        350   595.E-03
  IMPLANTE-2-COPY4-1        1590        391   595.E-03
  IMPLANTE-2-COPY4-1        1591        350   454.E-03
  IMPLANTE-2-COPY4-1        1591        358   454.E-03
  IMPLANTE-2-COPY4-1        1592        351   660.E-03
  IMPLANTE-2-COPY4-1        1592        391   660.E-03
  IMPLANTE-2-COPY4-1        1593        351   508.E-03
  IMPLANTE-2-COPY4-1        1593        392   508.E-03
  IMPLANTE-2-COPY4-1        1594        351   570.E-03
  IMPLANTE-2-COPY4-1        1594        436   570.E-03
  IMPLANTE-2-COPY4-1        1595        351   727.E-03
  IMPLANTE-2-COPY4-1        1595        404   727.E-03
  IMPLANTE-2-COPY4-1        1596        352   674.E-03
  IMPLANTE-2-COPY4-1        1596        363   674.E-03
  IMPLANTE-2-COPY4-1        1597        352   646.E-03
  IMPLANTE-2-COPY4-1        1597        464   646.E-03
  IMPLANTE-2-COPY4-1        1598        352   682.E-03
  IMPLANTE-2-COPY4-1        1598        517   682.E-03
  IMPLANTE-2-COPY4-1        1599        353   788.E-03
  IMPLANTE-2-COPY4-1        1599        531   788.E-03
  IMPLANTE-2-COPY4-1        1600        353   795.E-03
  IMPLANTE-2-COPY4-1        1600        555   795.E-03
  IMPLANTE-2-COPY4-1        1601        353   802.E-03
  IMPLANTE-2-COPY4-1        1601        366   802.E-03
  IMPLANTE-2-COPY4-1        1602        354   824.E-03
  IMPLANTE-2-COPY4-1        1602        366   824.E-03
  IMPLANTE-2-COPY4-1        1603        354   861.E-03
  IMPLANTE-2-COPY4-1        1603        452   861.E-03
  IMPLANTE-2-COPY4-1        1604        355   337.E-03
  IMPLANTE-2-COPY4-1        1604        399   337.E-03
  IMPLANTE-2-COPY4-1        1605        355   326.E-03
  IMPLANTE-2-COPY4-1        1605        400   326.E-03
  IMPLANTE-2-COPY4-1        1606        355   315.E-03
  IMPLANTE-2-COPY4-1        1607        356   415.E-03
  IMPLANTE-2-COPY4-1        1607        427   415.E-03
  IMPLANTE-2-COPY4-1        1608        356   364.E-03
  IMPLANTE-2-COPY4-1        1608        403   364.E-03
  IMPLANTE-2-COPY4-1        1609        356   400.E-03
  IMPLANTE-2-COPY4-1        1609        393   400.E-03
  IMPLANTE-2-COPY4-1        1610        357         1.
  IMPLANTE-2-COPY4-1        1610        425         1.
  IMPLANTE-2-COPY4-1        1611        357         1.
  IMPLANTE-2-COPY4-1        1611        388         1.
  IMPLANTE-2-COPY4-1        1612        357         1.
  IMPLANTE-2-COPY4-1        1612        442         1.
  IMPLANTE-2-COPY4-1        1613        358   282.E-03
  IMPLANTE-2-COPY4-1        1614        358   740.E-03
  IMPLANTE-2-COPY4-1        1614        388   740.E-03
  IMPLANTE-2-COPY4-1        1615        359         1.
  IMPLANTE-2-COPY4-1        1615        424         1.
  IMPLANTE-2-COPY4-1        1616        359         1.
  IMPLANTE-2-COPY4-1        1616        360         1.
  IMPLANTE-2-COPY4-1        1617        359         1.
  IMPLANTE-2-COPY4-1        1617        468         1.
  IMPLANTE-2-COPY4-1        1618        360   988.E-03
  IMPLANTE-2-COPY4-1        1618        456   988.E-03
  IMPLANTE-2-COPY4-1        1619        360         1.
  IMPLANTE-2-COPY4-1        1619        467         1.
  IMPLANTE-2-COPY4-1        1620        361         3.
  IMPLANTE-2-COPY4-1        1620        559         3.
  IMPLANTE-2-COPY4-1        1621        361         3.
  IMPLANTE-2-COPY4-1        1621        387         3.
  IMPLANTE-2-COPY4-1        1622        361         2.
  IMPLANTE-2-COPY4-1        1622        425         2.
  IMPLANTE-2-COPY4-1        1623        362   580.E-03
  IMPLANTE-2-COPY4-1        1623        418   580.E-03
  IMPLANTE-2-COPY4-1        1624        362   629.E-03
  IMPLANTE-2-COPY4-1        1624        483   629.E-03
  IMPLANTE-2-COPY4-1        1625        362   664.E-03
  IMPLANTE-2-COPY4-1        1625        364   664.E-03
  IMPLANTE-2-COPY4-1        1626        363   757.E-03
  IMPLANTE-2-COPY4-1        1626        422   757.E-03
  IMPLANTE-2-COPY4-1        1627        363   818.E-03
  IMPLANTE-2-COPY4-1        1627        456   818.E-03
  IMPLANTE-2-COPY4-1        1628        364   684.E-03
  IMPLANTE-2-COPY4-1        1628        464   684.E-03
  IMPLANTE-2-COPY4-1        1629        364   671.E-03
  IMPLANTE-2-COPY4-1        1629        516   671.E-03
  IMPLANTE-2-COPY4-1        1630        365         2.
  IMPLANTE-2-COPY4-1        1630        377         2.
  IMPLANTE-2-COPY4-1        1631        365         2.
  IMPLANTE-2-COPY4-1        1631        378         2.
  IMPLANTE-2-COPY4-1        1632        365         1.
  IMPLANTE-2-COPY4-1        1632        415         1.
  IMPLANTE-2-COPY4-1        1633        365         1.
  IMPLANTE-2-COPY4-1        1633        371         1.
  IMPLANTE-2-COPY4-1        1634        366   790.E-03
  IMPLANTE-2-COPY4-1        1634        584   790.E-03
  IMPLANTE-2-COPY4-1        1635        366   812.E-03
  IMPLANTE-2-COPY4-1        1635        536   812.E-03
  IMPLANTE-2-COPY4-1        1636        367   759.E-03
  IMPLANTE-2-COPY4-1        1636        448   759.E-03
  IMPLANTE-2-COPY4-1        1637        367   742.E-03
  IMPLANTE-2-COPY4-1        1637        380   742.E-03
  IMPLANTE-2-COPY4-1        1638        367   791.E-03
  IMPLANTE-2-COPY4-1        1638        474   791.E-03
  IMPLANTE-2-COPY4-1        1639        367   809.E-03
  IMPLANTE-2-COPY4-1        1639        484   809.E-03
  IMPLANTE-2-COPY4-1        1640        368   671.E-03
  IMPLANTE-2-COPY4-1        1640        414   671.E-03
  IMPLANTE-2-COPY4-1        1641        368   493.E-03
  IMPLANTE-2-COPY4-1        1642        369         5.
  IMPLANTE-2-COPY4-1        1643        369         5.
  IMPLANTE-2-COPY4-1        1643        476         5.
  IMPLANTE-2-COPY4-1        1644        370         2.
  IMPLANTE-2-COPY4-1        1644        563         2.
  IMPLANTE-2-COPY4-1        1645        370         1.
  IMPLANTE-2-COPY4-1        1645        466         1.
  IMPLANTE-2-COPY4-1        1646        371   487.E-03
  IMPLANTE-2-COPY4-1        1647        371   728.E-03
  IMPLANTE-2-COPY4-1        1647        379   728.E-03
  IMPLANTE-2-COPY4-1        1648        372   710.E-03
  IMPLANTE-2-COPY4-1        1648        487   710.E-03
  IMPLANTE-2-COPY4-1        1649        372   662.E-03
  IMPLANTE-2-COPY4-1        1649        418   662.E-03
  IMPLANTE-2-COPY4-1        1650        373   579.E-03
  IMPLANTE-2-COPY4-1        1651        373   606.E-03
  IMPLANTE-2-COPY4-1        1651        381   606.E-03
  IMPLANTE-2-COPY4-1        1652        373   658.E-03
  IMPLANTE-2-COPY4-1        1652        419   658.E-03
  IMPLANTE-2-COPY4-1        1653        374   463.E-03
  IMPLANTE-2-COPY4-1        1654        374   640.E-03
  IMPLANTE-2-COPY4-1        1654        379   640.E-03
  IMPLANTE-2-COPY4-1        1655        374   785.E-03
  IMPLANTE-2-COPY4-1        1655        382   785.E-03
  IMPLANTE-2-COPY4-1        1656        375   701.E-03
  IMPLANTE-2-COPY4-1        1656        380   701.E-03
  IMPLANTE-2-COPY4-1        1657        375   726.E-03
  IMPLANTE-2-COPY4-1        1657        414   726.E-03
  IMPLANTE-2-COPY4-1        1658        375   775.E-03
  IMPLANTE-2-COPY4-1        1658        474   775.E-03
  IMPLANTE-2-COPY4-1        1659        376   820.E-03
  IMPLANTE-2-COPY4-1        1659        447   820.E-03
  IMPLANTE-2-COPY4-1        1660        376   813.E-03
  IMPLANTE-2-COPY4-1        1660        416   813.E-03
  IMPLANTE-2-COPY4-1        1661        376   857.E-03
  IMPLANTE-2-COPY4-1        1661        383   857.E-03
  IMPLANTE-2-COPY4-1        1662        377         2.
  IMPLANTE-2-COPY4-1        1662        478         2.
  IMPLANTE-2-COPY4-1        1663        378         2.
  IMPLANTE-2-COPY4-1        1663        466         2.
  IMPLANTE-2-COPY4-1        1664        378         2.
  IMPLANTE-2-COPY4-1        1664        478         2.
  IMPLANTE-2-COPY4-1        1665        379   465.E-03
  IMPLANTE-2-COPY4-1        1666        379   919.E-03
  IMPLANTE-2-COPY4-1        1666        415   919.E-03
  IMPLANTE-2-COPY4-1        1667        380   691.E-03
  IMPLANTE-2-COPY4-1        1667        419   691.E-03
  IMPLANTE-2-COPY4-1        1668        380   649.E-03
  IMPLANTE-2-COPY4-1        1668        381   649.E-03
  IMPLANTE-2-COPY4-1        1669        381   545.E-03
  IMPLANTE-2-COPY4-1        1670        382   982.E-03
  IMPLANTE-2-COPY4-1        1670        415   982.E-03
  IMPLANTE-2-COPY4-1        1671        382         1.
  IMPLANTE-2-COPY4-1        1671        423         1.
  IMPLANTE-2-COPY4-1        1672        383   831.E-03
  IMPLANTE-2-COPY4-1        1672        384   831.E-03
  IMPLANTE-2-COPY4-1        1673        383   861.E-03
  IMPLANTE-2-COPY4-1        1674        384   813.E-03
  IMPLANTE-2-COPY4-1        1675        384   806.E-03
  IMPLANTE-2-COPY4-1        1675        447   806.E-03
  IMPLANTE-2-COPY4-1        1676        385   663.E-03
  IMPLANTE-2-COPY4-1        1677        386   723.E-03
  IMPLANTE-2-COPY4-1        1677        487   723.E-03
  IMPLANTE-2-COPY4-1        1678        386   742.E-03
  IMPLANTE-2-COPY4-1        1678        420   742.E-03
  IMPLANTE-2-COPY4-1        1679        386   736.E-03
  IMPLANTE-2-COPY4-1        1679        508   736.E-03
  IMPLANTE-2-COPY4-1        1680        386   716.E-03
  IMPLANTE-2-COPY4-1        1680        523   716.E-03
  IMPLANTE-2-COPY4-1        1681        387         1.
  IMPLANTE-2-COPY4-1        1682        387         4.
  IMPLANTE-2-COPY4-1        1682        562         4.
  IMPLANTE-2-COPY4-1        1683        388   799.E-03
  IMPLANTE-2-COPY4-1        1683        391   799.E-03
  IMPLANTE-2-COPY4-1        1684        389   276.E-03
  IMPLANTE-2-COPY4-1        1685        389   323.E-03
  IMPLANTE-2-COPY4-1        1685        403   323.E-03
  IMPLANTE-2-COPY4-1        1686        389   375.E-03
  IMPLANTE-2-COPY4-1        1686        427   375.E-03
  IMPLANTE-2-COPY4-1        1687        390   297.E-03
  IMPLANTE-2-COPY4-1        1688        390   321.E-03
  IMPLANTE-2-COPY4-1        1688        406   321.E-03
  IMPLANTE-2-COPY4-1        1689        390   343.E-03
  IMPLANTE-2-COPY4-1        1689        431   343.E-03
  IMPLANTE-2-COPY4-1        1690        392   270.E-03
  IMPLANTE-2-COPY4-1        1691        392   371.E-03
  IMPLANTE-2-COPY4-1        1691        405   371.E-03
  IMPLANTE-2-COPY4-1        1692        393   389.E-03
  IMPLANTE-2-COPY4-1        1692        409   389.E-03
  IMPLANTE-2-COPY4-1        1693        393   432.E-03
  IMPLANTE-2-COPY4-1        1693        440   432.E-03
  IMPLANTE-2-COPY4-1        1694        394   347.E-03
  IMPLANTE-2-COPY4-1        1694        429   347.E-03
  IMPLANTE-2-COPY4-1        1695        394   290.E-03
  IMPLANTE-2-COPY4-1        1696        395   375.E-03
  IMPLANTE-2-COPY4-1        1696        429   375.E-03
  IMPLANTE-2-COPY4-1        1697        395   370.E-03
  IMPLANTE-2-COPY4-1        1697        431   370.E-03
  IMPLANTE-2-COPY4-1        1698        395   399.E-03
  IMPLANTE-2-COPY4-1        1698        461   399.E-03
  IMPLANTE-2-COPY4-1        1699        396   326.E-03
  IMPLANTE-2-COPY4-1        1699        542   326.E-03
  IMPLANTE-2-COPY4-1        1700        396   308.E-03
  IMPLANTE-2-COPY4-1        1701        397   307.E-03
  IMPLANTE-2-COPY4-1        1702        397   324.E-03
  IMPLANTE-2-COPY4-1        1702        400   324.E-03
  IMPLANTE-2-COPY4-1        1703        397   340.E-03
  IMPLANTE-2-COPY4-1        1703        428   340.E-03
  IMPLANTE-2-COPY4-1        1704        398   485.E-03
  IMPLANTE-2-COPY4-1        1704        410   485.E-03
  IMPLANTE-2-COPY4-1        1705        398   440.E-03
  IMPLANTE-2-COPY4-1        1705        505   440.E-03
  IMPLANTE-2-COPY4-1        1706        399   350.E-03
  IMPLANTE-2-COPY4-1        1706        435   350.E-03
  IMPLANTE-2-COPY4-1        1707        399   366.E-03
  IMPLANTE-2-COPY4-1        1707        439   366.E-03
  IMPLANTE-2-COPY4-1        1708        400   311.E-03
  IMPLANTE-2-COPY4-1        1709        401   466.E-03
  IMPLANTE-2-COPY4-1        1709        437   466.E-03
  IMPLANTE-2-COPY4-1        1710        401   437.E-03
  IMPLANTE-2-COPY4-1        1710        427   437.E-03
  IMPLANTE-2-COPY4-1        1711        402         1.
  IMPLANTE-2-COPY4-1        1711        454         1.
  IMPLANTE-2-COPY4-1        1712        402         1.
  IMPLANTE-2-COPY4-1        1712        434         1.
  IMPLANTE-2-COPY4-1        1713        403   280.E-03
  IMPLANTE-2-COPY4-1        1714        404   895.E-03
  IMPLANTE-2-COPY4-1        1714        488   895.E-03
  IMPLANTE-2-COPY4-1        1715        404   743.E-03
  IMPLANTE-2-COPY4-1        1715        443   743.E-03
  IMPLANTE-2-COPY4-1        1716        405   270.E-03
  IMPLANTE-2-COPY4-1        1717        405   453.E-03
  IMPLANTE-2-COPY4-1        1717        436   453.E-03
  IMPLANTE-2-COPY4-1        1718        406   300.E-03
  IMPLANTE-2-COPY4-1        1719        407   347.E-03
  IMPLANTE-2-COPY4-1        1719        542   347.E-03
  IMPLANTE-2-COPY4-1        1720        408   360.E-03
  IMPLANTE-2-COPY4-1        1720        428   360.E-03
  IMPLANTE-2-COPY4-1        1721        408   382.E-03
  IMPLANTE-2-COPY4-1        1721        444   382.E-03
  IMPLANTE-2-COPY4-1        1722        409   380.E-03
  IMPLANTE-2-COPY4-1        1722        429   380.E-03
  IMPLANTE-2-COPY4-1        1723        409   418.E-03
  IMPLANTE-2-COPY4-1        1723        458   418.E-03
  IMPLANTE-2-COPY4-1        1724        410   466.E-03
  IMPLANTE-2-COPY4-1        1724        685   466.E-03
  IMPLANTE-2-COPY4-1        1725        411   450.E-03
  IMPLANTE-2-COPY4-1        1725        686   450.E-03
  IMPLANTE-2-COPY4-1        1726        411   428.E-03
  IMPLANTE-2-COPY4-1        1726        539   428.E-03
  IMPLANTE-2-COPY4-1        1727        411   412.E-03
  IMPLANTE-2-COPY4-1        1727        441   412.E-03
  IMPLANTE-2-COPY4-1        1728        411   435.E-03
  IMPLANTE-2-COPY4-1        1728        685   435.E-03
  IMPLANTE-2-COPY4-1        1729        412   746.E-03
  IMPLANTE-2-COPY4-1        1729        445   746.E-03
  IMPLANTE-2-COPY4-1        1730        412   613.E-03
  IMPLANTE-2-COPY4-1        1730        540   613.E-03
  IMPLANTE-2-COPY4-1        1731        413   392.E-03
  IMPLANTE-2-COPY4-1        1731        441   392.E-03
  IMPLANTE-2-COPY4-1        1732        413   383.E-03
  IMPLANTE-2-COPY4-1        1732        439   383.E-03
  IMPLANTE-2-COPY4-1        1733        413   360.E-03
  IMPLANTE-2-COPY4-1        1733        435   360.E-03
  IMPLANTE-2-COPY4-1        1734        413   371.E-03
  IMPLANTE-2-COPY4-1        1734        504   371.E-03
  IMPLANTE-2-COPY4-1        1735        414   832.E-03
  IMPLANTE-2-COPY4-1        1735        469   832.E-03
  IMPLANTE-2-COPY4-1        1736        415         1.
  IMPLANTE-2-COPY4-1        1736        466         1.
  IMPLANTE-2-COPY4-1        1737        416   796.E-03
  IMPLANTE-2-COPY4-1        1737        447   796.E-03
  IMPLANTE-2-COPY4-1        1738        417   747.E-03
  IMPLANTE-2-COPY4-1        1738        420   747.E-03
  IMPLANTE-2-COPY4-1        1739        418   643.E-03
  IMPLANTE-2-COPY4-1        1739        485   643.E-03
  IMPLANTE-2-COPY4-1        1740        419   727.E-03
  IMPLANTE-2-COPY4-1        1740        448   727.E-03
  IMPLANTE-2-COPY4-1        1741        420   740.E-03
  IMPLANTE-2-COPY4-1        1741        446   740.E-03
  IMPLANTE-2-COPY4-1        1742        421         1.
  IMPLANTE-2-COPY4-1        1742        684         1.
  IMPLANTE-2-COPY4-1        1743        421         1.
  IMPLANTE-2-COPY4-1        1743        519         1.
  IMPLANTE-2-COPY4-1        1744        421         1.
  IMPLANTE-2-COPY4-1        1744        566         1.
  IMPLANTE-2-COPY4-1        1745        421         1.
  IMPLANTE-2-COPY4-1        1745        651         1.
  IMPLANTE-2-COPY4-1        1746        422   813.E-03
  IMPLANTE-2-COPY4-1        1746        565   813.E-03
  IMPLANTE-2-COPY4-1        1747        422   844.E-03
  IMPLANTE-2-COPY4-1        1747        511   844.E-03
  IMPLANTE-2-COPY4-1        1748        422   737.E-03
  IMPLANTE-2-COPY4-1        1748        517   737.E-03
  IMPLANTE-2-COPY4-1        1749        423         1.
  IMPLANTE-2-COPY4-1        1749        466         1.
  IMPLANTE-2-COPY4-1        1750        423         1.
  IMPLANTE-2-COPY4-1        1750        465         1.
  IMPLANTE-2-COPY4-1        1751        424         1.
  IMPLANTE-2-COPY4-1        1751        471         1.
  IMPLANTE-2-COPY4-1        1752        426         1.
  IMPLANTE-2-COPY4-1        1752        545         1.
  IMPLANTE-2-COPY4-1        1753        426         1.
  IMPLANTE-2-COPY4-1        1753        451         1.
  IMPLANTE-2-COPY4-1        1754        427   476.E-03
  IMPLANTE-2-COPY4-1        1754        457   476.E-03
  IMPLANTE-2-COPY4-1        1755        429   408.E-03
  IMPLANTE-2-COPY4-1        1755        494   408.E-03
  IMPLANTE-2-COPY4-1        1756        430   790.E-03
  IMPLANTE-2-COPY4-1        1756        450   790.E-03
  IMPLANTE-2-COPY4-1        1757        430   789.E-03
  IMPLANTE-2-COPY4-1        1757        531   789.E-03
  IMPLANTE-2-COPY4-1        1758        431   392.E-03
  IMPLANTE-2-COPY4-1        1758        433   392.E-03
  IMPLANTE-2-COPY4-1        1759        432   592.E-03
  IMPLANTE-2-COPY4-1        1759        470   592.E-03
  IMPLANTE-2-COPY4-1        1760        432   658.E-03
  IMPLANTE-2-COPY4-1        1760        530   658.E-03
  IMPLANTE-2-COPY4-1        1761        432   636.E-03
  IMPLANTE-2-COPY4-1        1761        495   636.E-03
  IMPLANTE-2-COPY4-1        1762        432   572.E-03
  IMPLANTE-2-COPY4-1        1762        457   572.E-03
  IMPLANTE-2-COPY4-1        1763        433   443.E-03
  IMPLANTE-2-COPY4-1        1763        499   443.E-03
  IMPLANTE-2-COPY4-1        1764        433   422.E-03
  IMPLANTE-2-COPY4-1        1764        461   422.E-03
  IMPLANTE-2-COPY4-1        1765        433   414.E-03
  IMPLANTE-2-COPY4-1        1765        453   414.E-03
  IMPLANTE-2-COPY4-1        1766        434         1.
  IMPLANTE-2-COPY4-1        1766        594         1.
  IMPLANTE-2-COPY4-1        1767        434         1.
  IMPLANTE-2-COPY4-1        1767        548         1.
  IMPLANTE-2-COPY4-1        1768        434         1.
  IMPLANTE-2-COPY4-1        1768        547         1.
  IMPLANTE-2-COPY4-1        1769        436   508.E-03
  IMPLANTE-2-COPY4-1        1769        437   508.E-03
  IMPLANTE-2-COPY4-1        1770        436   627.E-03
  IMPLANTE-2-COPY4-1        1770        443   627.E-03
  IMPLANTE-2-COPY4-1        1771        438         1.
  IMPLANTE-2-COPY4-1        1771        488         1.
  IMPLANTE-2-COPY4-1        1772        438         1.
  IMPLANTE-2-COPY4-1        1772        552         1.
  IMPLANTE-2-COPY4-1        1773        438         1.
  IMPLANTE-2-COPY4-1        1773        455         1.
  IMPLANTE-2-COPY4-1        1774        439   405.E-03
  IMPLANTE-2-COPY4-1        1774        539   405.E-03
  IMPLANTE-2-COPY4-1        1775        439   389.E-03
  IMPLANTE-2-COPY4-1        1775        500   389.E-03
  IMPLANTE-2-COPY4-1        1776        440   508.E-03
  IMPLANTE-2-COPY4-1        1776        493   508.E-03
  IMPLANTE-2-COPY4-1        1777        440   460.E-03
  IMPLANTE-2-COPY4-1        1777        458   460.E-03
  IMPLANTE-2-COPY4-1        1778        441   389.E-03
  IMPLANTE-2-COPY4-1        1778        504   389.E-03
  IMPLANTE-2-COPY4-1        1779        441   410.E-03
  IMPLANTE-2-COPY4-1        1779        505   410.E-03
  IMPLANTE-2-COPY4-1        1780        443   772.E-03
  IMPLANTE-2-COPY4-1        1780        521   772.E-03
  IMPLANTE-2-COPY4-1        1781        444   426.E-03
  IMPLANTE-2-COPY4-1        1781        502   426.E-03
  IMPLANTE-2-COPY4-1        1782        444   407.E-03
  IMPLANTE-2-COPY4-1        1782        453   407.E-03
  IMPLANTE-2-COPY4-1        1783        445   857.E-03
  IMPLANTE-2-COPY4-1        1783        452   857.E-03
  IMPLANTE-2-COPY4-1        1784        445   758.E-03
  IMPLANTE-2-COPY4-1        1784        538   758.E-03
  IMPLANTE-2-COPY4-1        1785        446   737.E-03
  IMPLANTE-2-COPY4-1        1785        486   737.E-03
  IMPLANTE-2-COPY4-1        1786        446   745.E-03
  IMPLANTE-2-COPY4-1        1786        508   745.E-03
  IMPLANTE-2-COPY4-1        1787        448   743.E-03
  IMPLANTE-2-COPY4-1        1787        486   743.E-03
  IMPLANTE-2-COPY4-1        1788        448   775.E-03
  IMPLANTE-2-COPY4-1        1788        518   775.E-03
  IMPLANTE-2-COPY4-1        1789        449   921.E-03
  IMPLANTE-2-COPY4-1        1789        473   921.E-03
  IMPLANTE-2-COPY4-1        1790        449   951.E-03
  IMPLANTE-2-COPY4-1        1790        469   951.E-03
  IMPLANTE-2-COPY4-1        1791        449         1.
  IMPLANTE-2-COPY4-1        1791        513         1.
  IMPLANTE-2-COPY4-1        1792        449         1.
  IMPLANTE-2-COPY4-1        1792        481         1.
  IMPLANTE-2-COPY4-1        1793        450   905.E-03
  IMPLANTE-2-COPY4-1        1793        451   905.E-03
  IMPLANTE-2-COPY4-1        1794        450   854.E-03
  IMPLANTE-2-COPY4-1        1794        526   854.E-03
  IMPLANTE-2-COPY4-1        1795        452   826.E-03
  IMPLANTE-2-COPY4-1        1795        536   826.E-03
  IMPLANTE-2-COPY4-1        1796        453   433.E-03
  IMPLANTE-2-COPY4-1        1796        501   433.E-03
  IMPLANTE-2-COPY4-1        1797        454         1.
  IMPLANTE-2-COPY4-1        1797        548         1.
  IMPLANTE-2-COPY4-1        1798        455         1.
  IMPLANTE-2-COPY4-1        1798        564         1.
  IMPLANTE-2-COPY4-1        1799        456   898.E-03
  IMPLANTE-2-COPY4-1        1799        511   898.E-03
  IMPLANTE-2-COPY4-1        1800        458   486.E-03
  IMPLANTE-2-COPY4-1        1800        497   486.E-03
  IMPLANTE-2-COPY4-1        1801        458   444.E-03
  IMPLANTE-2-COPY4-1        1801        494   444.E-03
  IMPLANTE-2-COPY4-1        1802        459         2.
  IMPLANTE-2-COPY4-1        1802        525         2.
  IMPLANTE-2-COPY4-1        1803        459         2.
  IMPLANTE-2-COPY4-1        1803        615         2.
  IMPLANTE-2-COPY4-1        1804        459         2.
  IMPLANTE-2-COPY4-1        1804        647         2.
  IMPLANTE-2-COPY4-1        1805        459         2.
  IMPLANTE-2-COPY4-1        1805        463         2.
  IMPLANTE-2-COPY4-1        1806        460         1.
  IMPLANTE-2-COPY4-1        1806        553         1.
  IMPLANTE-2-COPY4-1        1807        460         1.
  IMPLANTE-2-COPY4-1        1807        468         1.
  IMPLANTE-2-COPY4-1        1808        460         1.
  IMPLANTE-2-COPY4-1        1808        567         1.
  IMPLANTE-2-COPY4-1        1809        460         1.
  IMPLANTE-2-COPY4-1        1809        550         1.
  IMPLANTE-2-COPY4-1        1810        461   454.E-03
  IMPLANTE-2-COPY4-1        1810        498   454.E-03
  IMPLANTE-2-COPY4-1        1811        461   432.E-03
  IMPLANTE-2-COPY4-1        1811        494   432.E-03
  IMPLANTE-2-COPY4-1        1812        462   591.E-03
  IMPLANTE-2-COPY4-1        1812        532   591.E-03
  IMPLANTE-2-COPY4-1        1813        462   639.E-03
  IMPLANTE-2-COPY4-1        1813        623   639.E-03
  IMPLANTE-2-COPY4-1        1814        462   626.E-03
  IMPLANTE-2-COPY4-1        1814        492   626.E-03
  IMPLANTE-2-COPY4-1        1815        462   578.E-03
  IMPLANTE-2-COPY4-1        1815        493   578.E-03
  IMPLANTE-2-COPY4-1        1816        463         2.
  IMPLANTE-2-COPY4-1        1816        589         2.
  IMPLANTE-2-COPY4-1        1817        464   678.E-03
  IMPLANTE-2-COPY4-1        1817        480   678.E-03
  IMPLANTE-2-COPY4-1        1818        465         1.
  IMPLANTE-2-COPY4-1        1818        513         1.
  IMPLANTE-2-COPY4-1        1819        465   933.E-03
  IMPLANTE-2-COPY4-1        1819        469   933.E-03
  IMPLANTE-2-COPY4-1        1820        467   983.E-03
  IMPLANTE-2-COPY4-1        1820        511   983.E-03
  IMPLANTE-2-COPY4-1        1821        467         1.
  IMPLANTE-2-COPY4-1        1821        567         1.
  IMPLANTE-2-COPY4-1        1822        467         1.
  IMPLANTE-2-COPY4-1        1822        468         1.
  IMPLANTE-2-COPY4-1        1823        468         1.
  IMPLANTE-2-COPY4-1        1823        471         1.
  IMPLANTE-2-COPY4-1        1824        469   846.E-03
  IMPLANTE-2-COPY4-1        1824        474   846.E-03
  IMPLANTE-2-COPY4-1        1825        470   557.E-03
  IMPLANTE-2-COPY4-1        1825        493   557.E-03
  IMPLANTE-2-COPY4-1        1826        470   614.E-03
  IMPLANTE-2-COPY4-1        1826        492   614.E-03
  IMPLANTE-2-COPY4-1        1827        471         1.
  IMPLANTE-2-COPY4-1        1827        553         1.
  IMPLANTE-2-COPY4-1        1828        471         1.
  IMPLANTE-2-COPY4-1        1828        547         1.
  IMPLANTE-2-COPY4-1        1829        472         1.
  IMPLANTE-2-COPY4-1        1829        552         1.
  IMPLANTE-2-COPY4-1        1830        472         1.
  IMPLANTE-2-COPY4-1        1830        488         1.
  IMPLANTE-2-COPY4-1        1831        472   962.E-03
  IMPLANTE-2-COPY4-1        1831        576   962.E-03
  IMPLANTE-2-COPY4-1        1832        472         1.
  IMPLANTE-2-COPY4-1        1832        575         1.
  IMPLANTE-2-COPY4-1        1833        473   849.E-03
  IMPLANTE-2-COPY4-1        1833        484   849.E-03
  IMPLANTE-2-COPY4-1        1834        473   864.E-03
  IMPLANTE-2-COPY4-1        1834        474   864.E-03
  IMPLANTE-2-COPY4-1        1835        473   909.E-03
  IMPLANTE-2-COPY4-1        1835        514   909.E-03
  IMPLANTE-2-COPY4-1        1836        475   503.E-03
  IMPLANTE-2-COPY4-1        1836        560   503.E-03
  IMPLANTE-2-COPY4-1        1837        475   525.E-03
  IMPLANTE-2-COPY4-1        1837        627   525.E-03
  IMPLANTE-2-COPY4-1        1838        475   496.E-03
  IMPLANTE-2-COPY4-1        1838        585   496.E-03
  IMPLANTE-2-COPY4-1        1839        475   474.E-03
  IMPLANTE-2-COPY4-1        1839        502   474.E-03
  IMPLANTE-2-COPY4-1        1840        476         5.
  IMPLANTE-2-COPY4-1        1841        476         5.
  IMPLANTE-2-COPY4-1        1841        562         5.
  IMPLANTE-2-COPY4-1        1842        476         4.
  IMPLANTE-2-COPY4-1        1842        608         4.
  IMPLANTE-2-COPY4-1        1843        477         3.
  IMPLANTE-2-COPY4-1        1843        590         3.
  IMPLANTE-2-COPY4-1        1844        477         3.
  IMPLANTE-2-COPY4-1        1844        630         3.
  IMPLANTE-2-COPY4-1        1845        477         3.
  IMPLANTE-2-COPY4-1        1845        561         3.
  IMPLANTE-2-COPY4-1        1846        477         4.
  IMPLANTE-2-COPY4-1        1846        608         4.
  IMPLANTE-2-COPY4-1        1847        478         3.
  IMPLANTE-2-COPY4-1        1847        479         3.
  IMPLANTE-2-COPY4-1        1848        478         2.
  IMPLANTE-2-COPY4-1        1848        510         2.
  IMPLANTE-2-COPY4-1        1849        479         3.
  IMPLANTE-2-COPY4-1        1849        561         3.
  IMPLANTE-2-COPY4-1        1850        479         3.
  IMPLANTE-2-COPY4-1        1850        628         3.
  IMPLANTE-2-COPY4-1        1851        480   695.E-03
  IMPLANTE-2-COPY4-1        1851        516   695.E-03
  IMPLANTE-2-COPY4-1        1852        480   716.E-03
  IMPLANTE-2-COPY4-1        1852        602   716.E-03
  IMPLANTE-2-COPY4-1        1853        480   701.E-03
  IMPLANTE-2-COPY4-1        1853        517   701.E-03
  IMPLANTE-2-COPY4-1        1854        481         1.
  IMPLANTE-2-COPY4-1        1854        566         1.
  IMPLANTE-2-COPY4-1        1855        481         1.
  IMPLANTE-2-COPY4-1        1855        519         1.
  IMPLANTE-2-COPY4-1        1856        481   946.E-03
  IMPLANTE-2-COPY4-1        1856        514   946.E-03
  IMPLANTE-2-COPY4-1        1857        482   788.E-03
  IMPLANTE-2-COPY4-1        1857        572   788.E-03
  IMPLANTE-2-COPY4-1        1858        482   775.E-03
  IMPLANTE-2-COPY4-1        1858        609   775.E-03
  IMPLANTE-2-COPY4-1        1859        482   754.E-03
  IMPLANTE-2-COPY4-1        1859        520   754.E-03
  IMPLANTE-2-COPY4-1        1860        482   769.E-03
  IMPLANTE-2-COPY4-1        1860        509   769.E-03
  IMPLANTE-2-COPY4-1        1861        483   672.E-03
  IMPLANTE-2-COPY4-1        1861        573   672.E-03
  IMPLANTE-2-COPY4-1        1862        483   664.E-03
  IMPLANTE-2-COPY4-1        1862        516   664.E-03
  IMPLANTE-2-COPY4-1        1863        483   644.E-03
  IMPLANTE-2-COPY4-1        1863        485   644.E-03
  IMPLANTE-2-COPY4-1        1864        484   802.E-03
  IMPLANTE-2-COPY4-1        1864        518   802.E-03
  IMPLANTE-2-COPY4-1        1865        484   843.E-03
  IMPLANTE-2-COPY4-1        1865        558   843.E-03
  IMPLANTE-2-COPY4-1        1866        485   685.E-03
  IMPLANTE-2-COPY4-1        1866        523   685.E-03
  IMPLANTE-2-COPY4-1        1867        485   688.E-03
  IMPLANTE-2-COPY4-1        1867        487   688.E-03
  IMPLANTE-2-COPY4-1        1868        486   755.E-03
  IMPLANTE-2-COPY4-1        1868        509   755.E-03
  IMPLANTE-2-COPY4-1        1869        488   874.E-03
  IMPLANTE-2-COPY4-1        1869        521   874.E-03
  IMPLANTE-2-COPY4-1        1870        489         1.
  IMPLANTE-2-COPY4-1        1870        593         1.
  IMPLANTE-2-COPY4-1        1871        489         1.
  IMPLANTE-2-COPY4-1        1871        595         1.
  IMPLANTE-2-COPY4-1        1872        489         1.
  IMPLANTE-2-COPY4-1        1872        528         1.
  IMPLANTE-2-COPY4-1        1873        489         1.
  IMPLANTE-2-COPY4-1        1873        545         1.
  IMPLANTE-2-COPY4-1        1874        490         1.
  IMPLANTE-2-COPY4-1        1874        648         1.
  IMPLANTE-2-COPY4-1        1875        490         1.
  IMPLANTE-2-COPY4-1        1875        583         1.
  IMPLANTE-2-COPY4-1        1876        490         1.
  IMPLANTE-2-COPY4-1        1876        595         1.
  IMPLANTE-2-COPY4-1        1877        490         1.
  IMPLANTE-2-COPY4-1        1877        641         1.
  IMPLANTE-2-COPY4-1        1878        491   782.E-03
  IMPLANTE-2-COPY4-1        1878        496   782.E-03
  IMPLANTE-2-COPY4-1        1879        491   860.E-03
  IMPLANTE-2-COPY4-1        1879        574   860.E-03
  IMPLANTE-2-COPY4-1        1880        491   859.E-03
  IMPLANTE-2-COPY4-1        1880        576   859.E-03
  IMPLANTE-2-COPY4-1        1881        491   784.E-03
  IMPLANTE-2-COPY4-1        1881        524   784.E-03
  IMPLANTE-2-COPY4-1        1882        492   669.E-03
  IMPLANTE-2-COPY4-1        1882        530   669.E-03
  IMPLANTE-2-COPY4-1        1883        492   683.E-03
  IMPLANTE-2-COPY4-1        1883        527   683.E-03
  IMPLANTE-2-COPY4-1        1884        493   529.E-03
  IMPLANTE-2-COPY4-1        1884        497   529.E-03
  IMPLANTE-2-COPY4-1        1885        494   468.E-03
  IMPLANTE-2-COPY4-1        1885        529   468.E-03
  IMPLANTE-2-COPY4-1        1886        495   714.E-03
  IMPLANTE-2-COPY4-1        1886        496   714.E-03
  IMPLANTE-2-COPY4-1        1887        495   694.E-03
  IMPLANTE-2-COPY4-1        1887        524   694.E-03
  IMPLANTE-2-COPY4-1        1888        496   720.E-03
  IMPLANTE-2-COPY4-1        1888        530   720.E-03
  IMPLANTE-2-COPY4-1        1889        496   792.E-03
  IMPLANTE-2-COPY4-1        1889        620   792.E-03
  IMPLANTE-2-COPY4-1        1890        497   506.E-03
  IMPLANTE-2-COPY4-1        1890        529   506.E-03
  IMPLANTE-2-COPY4-1        1891        497   549.E-03
  IMPLANTE-2-COPY4-1        1891        532   549.E-03
  IMPLANTE-2-COPY4-1        1892        498   475.E-03
  IMPLANTE-2-COPY4-1        1892        499   475.E-03
  IMPLANTE-2-COPY4-1        1893        498   508.E-03
  IMPLANTE-2-COPY4-1        1893        582   508.E-03
  IMPLANTE-2-COPY4-1        1894        498   488.E-03
  IMPLANTE-2-COPY4-1        1894        529   488.E-03
  IMPLANTE-2-COPY4-1        1895        499   463.E-03
  IMPLANTE-2-COPY4-1        1895        501   463.E-03
  IMPLANTE-2-COPY4-1        1896        499   494.E-03
  IMPLANTE-2-COPY4-1        1896        537   494.E-03
  IMPLANTE-2-COPY4-1        1897        500   412.E-03
  IMPLANTE-2-COPY4-1        1897        507   412.E-03
  IMPLANTE-2-COPY4-1        1898        501   453.E-03
  IMPLANTE-2-COPY4-1        1898        502   453.E-03
  IMPLANTE-2-COPY4-1        1899        501   481.E-03
  IMPLANTE-2-COPY4-1        1899        585   481.E-03
  IMPLANTE-2-COPY4-1        1900        502   448.E-03
  IMPLANTE-2-COPY4-1        1900        535   448.E-03
  IMPLANTE-2-COPY4-1        1901        503   610.E-03
  IMPLANTE-2-COPY4-1        1901        587   610.E-03
  IMPLANTE-2-COPY4-1        1902        503   565.E-03
  IMPLANTE-2-COPY4-1        1902        627   565.E-03
  IMPLANTE-2-COPY4-1        1903        503   539.E-03
  IMPLANTE-2-COPY4-1        1903        560   539.E-03
  IMPLANTE-2-COPY4-1        1904        503   587.E-03
  IMPLANTE-2-COPY4-1        1904        614   587.E-03
  IMPLANTE-2-COPY4-1        1905        505   439.E-03
  IMPLANTE-2-COPY4-1        1905        685   439.E-03
  IMPLANTE-2-COPY4-1        1906        506   490.E-03
  IMPLANTE-2-COPY4-1        1906        686   490.E-03
  IMPLANTE-2-COPY4-1        1907        506   539.E-03
  IMPLANTE-2-COPY4-1        1907        540   539.E-03
  IMPLANTE-2-COPY4-1        1908        506   507.E-03
  IMPLANTE-2-COPY4-1        1908        541   507.E-03
  IMPLANTE-2-COPY4-1        1909        506   459.E-03
  IMPLANTE-2-COPY4-1        1909        539   459.E-03
  IMPLANTE-2-COPY4-1        1910        507   437.E-03
  IMPLANTE-2-COPY4-1        1910        539   437.E-03
  IMPLANTE-2-COPY4-1        1911        507   468.E-03
  IMPLANTE-2-COPY4-1        1911        541   468.E-03
  IMPLANTE-2-COPY4-1        1912        507   445.E-03
  IMPLANTE-2-COPY4-1        1912        535   445.E-03
  IMPLANTE-2-COPY4-1        1913        508   751.E-03
  IMPLANTE-2-COPY4-1        1913        509   751.E-03
  IMPLANTE-2-COPY4-1        1914        508   742.E-03
  IMPLANTE-2-COPY4-1        1914        520   742.E-03
  IMPLANTE-2-COPY4-1        1915        509   772.E-03
  IMPLANTE-2-COPY4-1        1915        518   772.E-03
  IMPLANTE-2-COPY4-1        1916        510         2.
  IMPLANTE-2-COPY4-1        1916        628         2.
  IMPLANTE-2-COPY4-1        1917        510         2.
  IMPLANTE-2-COPY4-1        1917        591         2.
  IMPLANTE-2-COPY4-1        1918        511   925.E-03
  IMPLANTE-2-COPY4-1        1918        515   925.E-03
  IMPLANTE-2-COPY4-1        1919        512         1.
  IMPLANTE-2-COPY4-1        1919        575         1.
  IMPLANTE-2-COPY4-1        1920        512         1.
  IMPLANTE-2-COPY4-1        1920        680         1.
  IMPLANTE-2-COPY4-1        1921        512         1.
  IMPLANTE-2-COPY4-1        1921        689         1.
  IMPLANTE-2-COPY4-1        1922        512         1.
  IMPLANTE-2-COPY4-1        1922        552         1.
  IMPLANTE-2-COPY4-1        1923        513         1.
  IMPLANTE-2-COPY4-1        1923        566         1.
  IMPLANTE-2-COPY4-1        1924        514   907.E-03
  IMPLANTE-2-COPY4-1        1924        603   907.E-03
  IMPLANTE-2-COPY4-1        1925        514   867.E-03
  IMPLANTE-2-COPY4-1        1925        558   867.E-03
  IMPLANTE-2-COPY4-1        1926        515   898.E-03
  IMPLANTE-2-COPY4-1        1926        565   898.E-03
  IMPLANTE-2-COPY4-1        1927        515   982.E-03
  IMPLANTE-2-COPY4-1        1927        618   982.E-03
  IMPLANTE-2-COPY4-1        1928        515         1.
  IMPLANTE-2-COPY4-1        1928        567         1.
  IMPLANTE-2-COPY4-1        1929        516   693.E-03
  IMPLANTE-2-COPY4-1        1929        570   693.E-03
  IMPLANTE-2-COPY4-1        1930        517   746.E-03
  IMPLANTE-2-COPY4-1        1930        599   746.E-03
  IMPLANTE-2-COPY4-1        1931        518   800.E-03
  IMPLANTE-2-COPY4-1        1931        572   800.E-03
  IMPLANTE-2-COPY4-1        1932        519   967.E-03
  IMPLANTE-2-COPY4-1        1932        639   967.E-03
  IMPLANTE-2-COPY4-1        1933        519   918.E-03
  IMPLANTE-2-COPY4-1        1933        603   918.E-03
  IMPLANTE-2-COPY4-1        1934        520   735.E-03
  IMPLANTE-2-COPY4-1        1934        557   735.E-03
  IMPLANTE-2-COPY4-1        1935        520   721.E-03
  IMPLANTE-2-COPY4-1        1935        523   721.E-03
  IMPLANTE-2-COPY4-1        1936        521   770.E-03
  IMPLANTE-2-COPY4-1        1936        524   770.E-03
  IMPLANTE-2-COPY4-1        1937        521   878.E-03
  IMPLANTE-2-COPY4-1        1937        576   878.E-03
  IMPLANTE-2-COPY4-1        1938        522         1.
  IMPLANTE-2-COPY4-1        1938        593         1.
  IMPLANTE-2-COPY4-1        1939        522         1.
  IMPLANTE-2-COPY4-1        1939        545         1.
  IMPLANTE-2-COPY4-1        1940        522         1.
  IMPLANTE-2-COPY4-1        1940        548         1.
  IMPLANTE-2-COPY4-1        1941        523   693.E-03
  IMPLANTE-2-COPY4-1        1941        573   693.E-03
  IMPLANTE-2-COPY4-1        1942        525         1.
  IMPLANTE-2-COPY4-1        1942        564         1.
  IMPLANTE-2-COPY4-1        1943        525         2.
  IMPLANTE-2-COPY4-1        1943        617         2.
  IMPLANTE-2-COPY4-1        1944        526   877.E-03
  IMPLANTE-2-COPY4-1        1944        598   877.E-03
  IMPLANTE-2-COPY4-1        1945        526   821.E-03
  IMPLANTE-2-COPY4-1        1945        531   821.E-03
  IMPLANTE-2-COPY4-1        1946        527   734.E-03
  IMPLANTE-2-COPY4-1        1946        691   734.E-03
  IMPLANTE-2-COPY4-1        1947        527   684.E-03
  IMPLANTE-2-COPY4-1        1947        623   684.E-03
  IMPLANTE-2-COPY4-1        1948        527   738.E-03
  IMPLANTE-2-COPY4-1        1948        678   738.E-03
  IMPLANTE-2-COPY4-1        1949        528   986.E-03
  IMPLANTE-2-COPY4-1        1949        578   986.E-03
  IMPLANTE-2-COPY4-1        1950        528   928.E-03
  IMPLANTE-2-COPY4-1        1950        598   928.E-03
  IMPLANTE-2-COPY4-1        1951        529   525.E-03
  IMPLANTE-2-COPY4-1        1951        580   525.E-03
  IMPLANTE-2-COPY4-1        1952        530   734.E-03
  IMPLANTE-2-COPY4-1        1952        691   734.E-03
  IMPLANTE-2-COPY4-1        1953        531   817.E-03
  IMPLANTE-2-COPY4-1        1953        534   817.E-03
  IMPLANTE-2-COPY4-1        1954        532   562.E-03
  IMPLANTE-2-COPY4-1        1954        580   562.E-03
  IMPLANTE-2-COPY4-1        1955        532   604.E-03
  IMPLANTE-2-COPY4-1        1955        605   604.E-03
  IMPLANTE-2-COPY4-1        1956        533         1.
  IMPLANTE-2-COPY4-1        1956        694         1.
  IMPLANTE-2-COPY4-1        1957        533         1.
  IMPLANTE-2-COPY4-1        1957        633         1.
  IMPLANTE-2-COPY4-1        1958        533         1.
  IMPLANTE-2-COPY4-1        1958        583         1.
  IMPLANTE-2-COPY4-1        1959        533         1.
  IMPLANTE-2-COPY4-1        1959        648         1.
  IMPLANTE-2-COPY4-1        1960        534   850.E-03
  IMPLANTE-2-COPY4-1        1960        598   850.E-03
  IMPLANTE-2-COPY4-1        1961        534   837.E-03
  IMPLANTE-2-COPY4-1        1961        624   837.E-03
  IMPLANTE-2-COPY4-1        1962        534   804.E-03
  IMPLANTE-2-COPY4-1        1962        555   804.E-03
  IMPLANTE-2-COPY4-1        1963        535   472.E-03
  IMPLANTE-2-COPY4-1        1963        560   472.E-03
  IMPLANTE-2-COPY4-1        1964        536   767.E-03
  IMPLANTE-2-COPY4-1        1964        606   767.E-03
  IMPLANTE-2-COPY4-1        1965        536   779.E-03
  IMPLANTE-2-COPY4-1        1965        538   779.E-03
  IMPLANTE-2-COPY4-1        1966        537   512.E-03
  IMPLANTE-2-COPY4-1        1966        585   512.E-03
  IMPLANTE-2-COPY4-1        1967        537   546.E-03
  IMPLANTE-2-COPY4-1        1967        586   546.E-03
  IMPLANTE-2-COPY4-1        1968        537   527.E-03
  IMPLANTE-2-COPY4-1        1968        582   527.E-03
  IMPLANTE-2-COPY4-1        1969        538   702.E-03
  IMPLANTE-2-COPY4-1        1969        588   702.E-03
  IMPLANTE-2-COPY4-1        1970        538   676.E-03
  IMPLANTE-2-COPY4-1        1970        540   676.E-03
  IMPLANTE-2-COPY4-1        1971        540   603.E-03
  IMPLANTE-2-COPY4-1        1971        614   603.E-03
  IMPLANTE-2-COPY4-1        1972        541   547.E-03
  IMPLANTE-2-COPY4-1        1972        614   547.E-03
  IMPLANTE-2-COPY4-1        1973        541   509.E-03
  IMPLANTE-2-COPY4-1        1973        560   509.E-03
  IMPLANTE-2-COPY4-1        1974        543         1.
  IMPLANTE-2-COPY4-1        1974        642         1.
  IMPLANTE-2-COPY4-1        1975        543         1.
  IMPLANTE-2-COPY4-1        1975        637         1.
  IMPLANTE-2-COPY4-1        1976        543         2.
  IMPLANTE-2-COPY4-1        1976        673         2.
  IMPLANTE-2-COPY4-1        1977        543         2.
  IMPLANTE-2-COPY4-1        1977        677         2.
  IMPLANTE-2-COPY4-1        1978        544   599.E-03
  IMPLANTE-2-COPY4-1        1978        586   599.E-03
  IMPLANTE-2-COPY4-1        1979        544   633.E-03
  IMPLANTE-2-COPY4-1        1979        587   633.E-03
  IMPLANTE-2-COPY4-1        1980        544   660.E-03
  IMPLANTE-2-COPY4-1        1980        645   660.E-03
  IMPLANTE-2-COPY4-1        1981        544   628.E-03
  IMPLANTE-2-COPY4-1        1981        664   628.E-03
  IMPLANTE-2-COPY4-1        1982        546         1.
  IMPLANTE-2-COPY4-1        1982        593         1.
  IMPLANTE-2-COPY4-1        1983        546         1.
  IMPLANTE-2-COPY4-1        1983        548         1.
  IMPLANTE-2-COPY4-1        1984        546         1.
  IMPLANTE-2-COPY4-1        1984        594         1.
  IMPLANTE-2-COPY4-1        1985        546         1.
  IMPLANTE-2-COPY4-1        1985        634         1.
  IMPLANTE-2-COPY4-1        1986        547         1.
  IMPLANTE-2-COPY4-1        1986        554         1.
  IMPLANTE-2-COPY4-1        1987        549         2.
  IMPLANTE-2-COPY4-1        1987        628         2.
  IMPLANTE-2-COPY4-1        1988        549         2.
  IMPLANTE-2-COPY4-1        1988        592         2.
  IMPLANTE-2-COPY4-1        1989        549         2.
  IMPLANTE-2-COPY4-1        1989        638         2.
  IMPLANTE-2-COPY4-1        1990        549         2.
  IMPLANTE-2-COPY4-1        1990        591         2.
  IMPLANTE-2-COPY4-1        1991        550         1.
  IMPLANTE-2-COPY4-1        1991        616         1.
  IMPLANTE-2-COPY4-1        1992        550         1.
  IMPLANTE-2-COPY4-1        1992        650         1.
  IMPLANTE-2-COPY4-1        1993        550         1.
  IMPLANTE-2-COPY4-1        1993        601         1.
  IMPLANTE-2-COPY4-1        1994        551         3.
  IMPLANTE-2-COPY4-1        1994        630         3.
  IMPLANTE-2-COPY4-1        1995        551         2.
  IMPLANTE-2-COPY4-1        1995        649         2.
  IMPLANTE-2-COPY4-1        1996        551         2.
  IMPLANTE-2-COPY4-1        1996        679         2.
  IMPLANTE-2-COPY4-1        1997        551         2.
  IMPLANTE-2-COPY4-1        1997        592         2.
  IMPLANTE-2-COPY4-1        1998        552         1.
  IMPLANTE-2-COPY4-1        1998        564         1.
  IMPLANTE-2-COPY4-1        1999        553         1.
  IMPLANTE-2-COPY4-1        1999        554         1.
  IMPLANTE-2-COPY4-1        2000        553         1.
  IMPLANTE-2-COPY4-1        2000        601         1.
  IMPLANTE-2-COPY4-1        2001        554         1.
  IMPLANTE-2-COPY4-1        2001        594         1.
  IMPLANTE-2-COPY4-1        2002        554         1.
  IMPLANTE-2-COPY4-1        2002        607         1.
  IMPLANTE-2-COPY4-1        2003        555   795.E-03
  IMPLANTE-2-COPY4-1        2003        625   795.E-03
  IMPLANTE-2-COPY4-1        2004        555   785.E-03
  IMPLANTE-2-COPY4-1        2004        584   785.E-03
  IMPLANTE-2-COPY4-1        2005        556   579.E-03
  IMPLANTE-2-COPY4-1        2005        586   579.E-03
  IMPLANTE-2-COPY4-1        2006        556   607.E-03
  IMPLANTE-2-COPY4-1        2006        664   607.E-03
  IMPLANTE-2-COPY4-1        2007        556   588.E-03
  IMPLANTE-2-COPY4-1        2007        692   588.E-03
  IMPLANTE-2-COPY4-1        2008        556   560.E-03
  IMPLANTE-2-COPY4-1        2008        582   560.E-03
  IMPLANTE-2-COPY4-1        2009        557   753.E-03
  IMPLANTE-2-COPY4-1        2009        609   753.E-03
  IMPLANTE-2-COPY4-1        2010        557   732.E-03
  IMPLANTE-2-COPY4-1        2010        570   732.E-03
  IMPLANTE-2-COPY4-1        2011        557   713.E-03
  IMPLANTE-2-COPY4-1        2011        573   713.E-03
  IMPLANTE-2-COPY4-1        2012        558   821.E-03
  IMPLANTE-2-COPY4-1        2012        572   821.E-03
  IMPLANTE-2-COPY4-1        2013        558   847.E-03
  IMPLANTE-2-COPY4-1        2013        613   847.E-03
  IMPLANTE-2-COPY4-1        2014        559         3.
  IMPLANTE-2-COPY4-1        2014        590         3.
  IMPLANTE-2-COPY4-1        2015        559         4.
  IMPLANTE-2-COPY4-1        2015        608         4.
  IMPLANTE-2-COPY4-1        2016        559         4.
  IMPLANTE-2-COPY4-1        2016        562         4.
  IMPLANTE-2-COPY4-1        2017        561         3.
  IMPLANTE-2-COPY4-1        2017        652         3.
  IMPLANTE-2-COPY4-1        2018        562         5.
  IMPLANTE-2-COPY4-1        2019        563         2.
  IMPLANTE-2-COPY4-1        2019        591         2.
  IMPLANTE-2-COPY4-1        2020        563         2.
  IMPLANTE-2-COPY4-1        2020        638         2.
  IMPLANTE-2-COPY4-1        2021        563         2.
  IMPLANTE-2-COPY4-1        2021        568         2.
  IMPLANTE-2-COPY4-1        2022        564         1.
  IMPLANTE-2-COPY4-1        2022        689         1.
  IMPLANTE-2-COPY4-1        2023        565   809.E-03
  IMPLANTE-2-COPY4-1        2023        599   809.E-03
  IMPLANTE-2-COPY4-1        2024        565   884.E-03
  IMPLANTE-2-COPY4-1        2024        569   884.E-03
  IMPLANTE-2-COPY4-1        2025        566         1.
  IMPLANTE-2-COPY4-1        2025        568         1.
  IMPLANTE-2-COPY4-1        2026        567         1.
  IMPLANTE-2-COPY4-1        2026        616         1.
  IMPLANTE-2-COPY4-1        2027        568         1.
  IMPLANTE-2-COPY4-1        2027        651         1.
  IMPLANTE-2-COPY4-1        2028        569   973.E-03
  IMPLANTE-2-COPY4-1        2028        618   973.E-03
  IMPLANTE-2-COPY4-1        2029        569   892.E-03
  IMPLANTE-2-COPY4-1        2029        619   892.E-03
  IMPLANTE-2-COPY4-1        2030        569   970.E-03
  IMPLANTE-2-COPY4-1        2030        600   970.E-03
  IMPLANTE-2-COPY4-1        2031        570   730.E-03
  IMPLANTE-2-COPY4-1        2031        602   730.E-03
  IMPLANTE-2-COPY4-1        2032        570   695.E-03
  IMPLANTE-2-COPY4-1        2032        573   695.E-03
  IMPLANTE-2-COPY4-1        2033        571   857.E-03
  IMPLANTE-2-COPY4-1        2033        603   857.E-03
  IMPLANTE-2-COPY4-1        2034        571   846.E-03
  IMPLANTE-2-COPY4-1        2034        619   846.E-03
  IMPLANTE-2-COPY4-1        2035        571   773.E-03
  IMPLANTE-2-COPY4-1        2035        602   773.E-03
  IMPLANTE-2-COPY4-1        2036        571   789.E-03
  IMPLANTE-2-COPY4-1        2036        609   789.E-03
  IMPLANTE-2-COPY4-1        2037        572   811.E-03
  IMPLANTE-2-COPY4-1        2037        613   811.E-03
  IMPLANTE-2-COPY4-1        2038        574   854.E-03
  IMPLANTE-2-COPY4-1        2038        620   854.E-03
  IMPLANTE-2-COPY4-1        2039        574   920.E-03
  IMPLANTE-2-COPY4-1        2039        690   920.E-03
  IMPLANTE-2-COPY4-1        2040        574   923.E-03
  IMPLANTE-2-COPY4-1        2040        577   923.E-03
  IMPLANTE-2-COPY4-1        2041        575         1.
  IMPLANTE-2-COPY4-1        2041        577         1.
  IMPLANTE-2-COPY4-1        2042        575         1.
  IMPLANTE-2-COPY4-1        2042        622         1.
  IMPLANTE-2-COPY4-1        2043        576   948.E-03
  IMPLANTE-2-COPY4-1        2043        577   948.E-03
  IMPLANTE-2-COPY4-1        2044        577   993.E-03
  IMPLANTE-2-COPY4-1        2044        681   993.E-03
  IMPLANTE-2-COPY4-1        2045        578         1.
  IMPLANTE-2-COPY4-1        2045        595         1.
  IMPLANTE-2-COPY4-1        2046        578         1.
  IMPLANTE-2-COPY4-1        2046        583         1.
  IMPLANTE-2-COPY4-1        2047        578   952.E-03
  IMPLANTE-2-COPY4-1        2047        579   952.E-03
  IMPLANTE-2-COPY4-1        2048        579   925.E-03
  IMPLANTE-2-COPY4-1        2048        640   925.E-03
  IMPLANTE-2-COPY4-1        2049        579   872.E-03
  IMPLANTE-2-COPY4-1        2049        624   872.E-03
  IMPLANTE-2-COPY4-1        2050        579   901.E-03
  IMPLANTE-2-COPY4-1        2050        598   901.E-03
  IMPLANTE-2-COPY4-1        2051        580   541.E-03
  IMPLANTE-2-COPY4-1        2051        582   541.E-03
  IMPLANTE-2-COPY4-1        2052        580   577.E-03
  IMPLANTE-2-COPY4-1        2052        692   577.E-03
  IMPLANTE-2-COPY4-1        2053        581   724.E-03
  IMPLANTE-2-COPY4-1        2053        678   724.E-03
  IMPLANTE-2-COPY4-1        2054        581   689.E-03
  IMPLANTE-2-COPY4-1        2054        623   689.E-03
  IMPLANTE-2-COPY4-1        2055        581   686.E-03
  IMPLANTE-2-COPY4-1        2055        695   686.E-03
  IMPLANTE-2-COPY4-1        2056        581   722.E-03
  IMPLANTE-2-COPY4-1        2056        696   722.E-03
  IMPLANTE-2-COPY4-1        2057        583   985.E-03
  IMPLANTE-2-COPY4-1        2057        640   985.E-03
  IMPLANTE-2-COPY4-1        2058        584   764.E-03
  IMPLANTE-2-COPY4-1        2058        626   764.E-03
  IMPLANTE-2-COPY4-1        2059        584   767.E-03
  IMPLANTE-2-COPY4-1        2059        606   767.E-03
  IMPLANTE-2-COPY4-1        2060        585   527.E-03
  IMPLANTE-2-COPY4-1        2060        627   527.E-03
  IMPLANTE-2-COPY4-1        2061        586   567.E-03
  IMPLANTE-2-COPY4-1        2061        627   567.E-03
  IMPLANTE-2-COPY4-1        2062        587   684.E-03
  IMPLANTE-2-COPY4-1        2062        611   684.E-03
  IMPLANTE-2-COPY4-1        2063        587   664.E-03
  IMPLANTE-2-COPY4-1        2063        588   664.E-03
  IMPLANTE-2-COPY4-1        2064        588   722.E-03
  IMPLANTE-2-COPY4-1        2064        606   722.E-03
  IMPLANTE-2-COPY4-1        2065        588   640.E-03
  IMPLANTE-2-COPY4-1        2065        614   640.E-03
  IMPLANTE-2-COPY4-1        2066        589         2.
  IMPLANTE-2-COPY4-1        2066        647         2.
  IMPLANTE-2-COPY4-1        2067        589         3.
  IMPLANTE-2-COPY4-1        2067        646         3.
  IMPLANTE-2-COPY4-1        2068        590         3.
  IMPLANTE-2-COPY4-1        2068        646         3.
  IMPLANTE-2-COPY4-1        2069        592         2.
  IMPLANTE-2-COPY4-1        2069        652         2.
  IMPLANTE-2-COPY4-1        2070        592         2.
  IMPLANTE-2-COPY4-1        2070        669         2.
  IMPLANTE-2-COPY4-1        2071        593         1.
  IMPLANTE-2-COPY4-1        2071        631         1.
  IMPLANTE-2-COPY4-1        2072        594         1.
  IMPLANTE-2-COPY4-1        2072        604         1.
  IMPLANTE-2-COPY4-1        2073        595         1.
  IMPLANTE-2-COPY4-1        2073        631         1.
  IMPLANTE-2-COPY4-1        2074        596         1.
  IMPLANTE-2-COPY4-1        2074        655         1.
  IMPLANTE-2-COPY4-1        2075        596         1.
  IMPLANTE-2-COPY4-1        2075        632         1.
  IMPLANTE-2-COPY4-1        2076        596         1.
  IMPLANTE-2-COPY4-1        2076        618         1.
  IMPLANTE-2-COPY4-1        2077        596         1.
  IMPLANTE-2-COPY4-1        2077        600         1.
  IMPLANTE-2-COPY4-1        2078        597   797.E-03
  IMPLANTE-2-COPY4-1        2078        691   797.E-03
  IMPLANTE-2-COPY4-1        2079        597   778.E-03
  IMPLANTE-2-COPY4-1        2079        678   778.E-03
  IMPLANTE-2-COPY4-1        2080        597   844.E-03
  IMPLANTE-2-COPY4-1        2080        610   844.E-03
  IMPLANTE-2-COPY4-1        2081        597   860.E-03
  IMPLANTE-2-COPY4-1        2081        658   860.E-03
  IMPLANTE-2-COPY4-1        2082        599   762.E-03
  IMPLANTE-2-COPY4-1        2082        602   762.E-03
  IMPLANTE-2-COPY4-1        2083        599   818.E-03
  IMPLANTE-2-COPY4-1        2083        619   818.E-03
  IMPLANTE-2-COPY4-1        2084        600         1.
  IMPLANTE-2-COPY4-1        2084        684         1.
  IMPLANTE-2-COPY4-1        2085        600   981.E-03
  IMPLANTE-2-COPY4-1        2085        639   981.E-03
  IMPLANTE-2-COPY4-1        2086        601         1.
  IMPLANTE-2-COPY4-1        2086        637         1.
  IMPLANTE-2-COPY4-1        2087        601         1.
  IMPLANTE-2-COPY4-1        2087        607         1.
  IMPLANTE-2-COPY4-1        2088        603   845.E-03
  IMPLANTE-2-COPY4-1        2088        613   845.E-03
  IMPLANTE-2-COPY4-1        2089        604         1.
  IMPLANTE-2-COPY4-1        2089        634         1.
  IMPLANTE-2-COPY4-1        2090        604         1.
  IMPLANTE-2-COPY4-1        2090        607         1.
  IMPLANTE-2-COPY4-1        2091        604         1.
  IMPLANTE-2-COPY4-1        2091        657         1.
  IMPLANTE-2-COPY4-1        2092        605   611.E-03
  IMPLANTE-2-COPY4-1        2092        692   611.E-03
  IMPLANTE-2-COPY4-1        2093        605   650.E-03
  IMPLANTE-2-COPY4-1        2093        695   650.E-03
  IMPLANTE-2-COPY4-1        2094        605   643.E-03
  IMPLANTE-2-COPY4-1        2094        623   643.E-03
  IMPLANTE-2-COPY4-1        2095        606   725.E-03
  IMPLANTE-2-COPY4-1        2095        611   725.E-03
  IMPLANTE-2-COPY4-1        2096        607         1.
  IMPLANTE-2-COPY4-1        2096        642         1.
  IMPLANTE-2-COPY4-1        2097        609   808.E-03
  IMPLANTE-2-COPY4-1        2097        613   808.E-03
  IMPLANTE-2-COPY4-1        2098        610   803.E-03
  IMPLANTE-2-COPY4-1        2098        644   803.E-03
  IMPLANTE-2-COPY4-1        2099        610   849.E-03
  IMPLANTE-2-COPY4-1        2099        624   849.E-03
  IMPLANTE-2-COPY4-1        2100        610   888.E-03
  IMPLANTE-2-COPY4-1        2100        640   888.E-03
  IMPLANTE-2-COPY4-1        2101        611   734.E-03
  IMPLANTE-2-COPY4-1        2101        626   734.E-03
  IMPLANTE-2-COPY4-1        2102        611   695.E-03
  IMPLANTE-2-COPY4-1        2102        645   695.E-03
  IMPLANTE-2-COPY4-1        2103        612   622.E-03
  IMPLANTE-2-COPY4-1        2103        692   622.E-03
  IMPLANTE-2-COPY4-1        2104        612   627.E-03
  IMPLANTE-2-COPY4-1        2104        664   627.E-03
  IMPLANTE-2-COPY4-1        2105        612   657.E-03
  IMPLANTE-2-COPY4-1        2105        662   657.E-03
  IMPLANTE-2-COPY4-1        2106        612   652.E-03
  IMPLANTE-2-COPY4-1        2106        695   652.E-03
  IMPLANTE-2-COPY4-1        2107        615         2.
  IMPLANTE-2-COPY4-1        2107        617         2.
  IMPLANTE-2-COPY4-1        2108        615         2.
  IMPLANTE-2-COPY4-1        2108        665         2.
  IMPLANTE-2-COPY4-1        2109        615         2.
  IMPLANTE-2-COPY4-1        2109        687         2.
  IMPLANTE-2-COPY4-1        2110        616         1.
  IMPLANTE-2-COPY4-1        2110        618         1.
  IMPLANTE-2-COPY4-1        2111        616         1.
  IMPLANTE-2-COPY4-1        2111        632         1.
  IMPLANTE-2-COPY4-1        2112        617         1.
  IMPLANTE-2-COPY4-1        2112        689         1.
  IMPLANTE-2-COPY4-1        2113        617         1.
  IMPLANTE-2-COPY4-1        2113        666         1.
  IMPLANTE-2-COPY4-1        2114        619   910.E-03
  IMPLANTE-2-COPY4-1        2114        639   910.E-03
  IMPLANTE-2-COPY4-1        2115        620   793.E-03
  IMPLANTE-2-COPY4-1        2115        691   793.E-03
  IMPLANTE-2-COPY4-1        2116        620   859.E-03
  IMPLANTE-2-COPY4-1        2116        658   859.E-03
  IMPLANTE-2-COPY4-1        2117        621         1.
  IMPLANTE-2-COPY4-1        2117        666         1.
  IMPLANTE-2-COPY4-1        2118        621         1.
  IMPLANTE-2-COPY4-1        2118        689         1.
  IMPLANTE-2-COPY4-1        2119        621         1.
  IMPLANTE-2-COPY4-1        2119        680         1.
  IMPLANTE-2-COPY4-1        2120        621         1.
  IMPLANTE-2-COPY4-1        2120        694         1.
  IMPLANTE-2-COPY4-1        2121        622         1.
  IMPLANTE-2-COPY4-1        2121        680         1.
  IMPLANTE-2-COPY4-1        2122        622         1.
  IMPLANTE-2-COPY4-1        2122        681         1.
  IMPLANTE-2-COPY4-1        2123        622         1.
  IMPLANTE-2-COPY4-1        2123        693         1.
  IMPLANTE-2-COPY4-1        2124        624   812.E-03
  IMPLANTE-2-COPY4-1        2124        625   812.E-03
  IMPLANTE-2-COPY4-1        2125        625   790.E-03
  IMPLANTE-2-COPY4-1        2125        644   790.E-03
  IMPLANTE-2-COPY4-1        2126        625   771.E-03
  IMPLANTE-2-COPY4-1        2126        626   771.E-03
  IMPLANTE-2-COPY4-1        2127        626   743.E-03
  IMPLANTE-2-COPY4-1        2127        663   743.E-03
  IMPLANTE-2-COPY4-1        2128        628         3.
  IMPLANTE-2-COPY4-1        2128        652         3.
  IMPLANTE-2-COPY4-1        2129        629         1.
  IMPLANTE-2-COPY4-1        2129        650         1.
  IMPLANTE-2-COPY4-1        2130        629         1.
  IMPLANTE-2-COPY4-1        2130        632         1.
  IMPLANTE-2-COPY4-1        2131        629         1.
  IMPLANTE-2-COPY4-1        2131        655         1.
  IMPLANTE-2-COPY4-1        2132        629         1.
  IMPLANTE-2-COPY4-1        2132        656         1.
  IMPLANTE-2-COPY4-1        2133        630         3.
  IMPLANTE-2-COPY4-1        2133        652         3.
  IMPLANTE-2-COPY4-1        2134        630         3.
  IMPLANTE-2-COPY4-1        2134        646         3.
  IMPLANTE-2-COPY4-1        2135        631         1.
  IMPLANTE-2-COPY4-1        2135        634         1.
  IMPLANTE-2-COPY4-1        2136        631         1.
  IMPLANTE-2-COPY4-1        2136        641         1.
  IMPLANTE-2-COPY4-1        2137        632         1.
  IMPLANTE-2-COPY4-1        2137        650         1.
  IMPLANTE-2-COPY4-1        2138        633         1.
  IMPLANTE-2-COPY4-1        2138        671         1.
  IMPLANTE-2-COPY4-1        2139        633   927.E-03
  IMPLANTE-2-COPY4-1        2139        658   927.E-03
  IMPLANTE-2-COPY4-1        2140        633   948.E-03
  IMPLANTE-2-COPY4-1        2140        640   948.E-03
  IMPLANTE-2-COPY4-1        2141        634         1.
  IMPLANTE-2-COPY4-1        2141        643         1.
  IMPLANTE-2-COPY4-1        2142        635         1.
  IMPLANTE-2-COPY4-1        2142        648         1.
  IMPLANTE-2-COPY4-1        2143        635         1.
  IMPLANTE-2-COPY4-1        2143        641         1.
  IMPLANTE-2-COPY4-1        2144        635         1.
  IMPLANTE-2-COPY4-1        2144        661         1.
  IMPLANTE-2-COPY4-1        2145        635         1.
  IMPLANTE-2-COPY4-1        2145        672         1.
  IMPLANTE-2-COPY4-1        2146        636         2.
  IMPLANTE-2-COPY4-1        2146        654         2.
  IMPLANTE-2-COPY4-1        2147        636         2.
  IMPLANTE-2-COPY4-1        2147        679         2.
  IMPLANTE-2-COPY4-1        2148        636         2.
  IMPLANTE-2-COPY4-1        2148        670         2.
  IMPLANTE-2-COPY4-1        2149        636         2.
  IMPLANTE-2-COPY4-1        2149        683         2.
  IMPLANTE-2-COPY4-1        2150        637         1.
  IMPLANTE-2-COPY4-1        2150        650         1.
  IMPLANTE-2-COPY4-1        2151        637         1.
  IMPLANTE-2-COPY4-1        2151        656         1.
  IMPLANTE-2-COPY4-1        2152        638         2.
  IMPLANTE-2-COPY4-1        2152        669         2.
  IMPLANTE-2-COPY4-1        2153        638         2.
  IMPLANTE-2-COPY4-1        2153        668         2.
  IMPLANTE-2-COPY4-1        2154        639         1.
  IMPLANTE-2-COPY4-1        2154        684         1.
  IMPLANTE-2-COPY4-1        2155        641         1.
  IMPLANTE-2-COPY4-1        2155        661         1.
  IMPLANTE-2-COPY4-1        2156        642         1.
  IMPLANTE-2-COPY4-1        2156        660         1.
  IMPLANTE-2-COPY4-1        2157        642         1.
  IMPLANTE-2-COPY4-1        2157        657         1.
  IMPLANTE-2-COPY4-1        2158        643         1.
  IMPLANTE-2-COPY4-1        2158        657         1.
  IMPLANTE-2-COPY4-1        2159        643         1.
  IMPLANTE-2-COPY4-1        2159        676         1.
  IMPLANTE-2-COPY4-1        2160        643         1.
  IMPLANTE-2-COPY4-1        2160        661         1.
  IMPLANTE-2-COPY4-1        2161        644   752.E-03
  IMPLANTE-2-COPY4-1        2161        663   752.E-03
  IMPLANTE-2-COPY4-1        2162        644   766.E-03
  IMPLANTE-2-COPY4-1        2162        696   766.E-03
  IMPLANTE-2-COPY4-1        2163        645   709.E-03
  IMPLANTE-2-COPY4-1        2163        663   709.E-03
  IMPLANTE-2-COPY4-1        2164        645   675.E-03
  IMPLANTE-2-COPY4-1        2164        662   675.E-03
  IMPLANTE-2-COPY4-1        2165        646         2.
  IMPLANTE-2-COPY4-1        2165        649         2.
  IMPLANTE-2-COPY4-1        2166        647         2.
  IMPLANTE-2-COPY4-1        2166        682         2.
  IMPLANTE-2-COPY4-1        2167        647         2.
  IMPLANTE-2-COPY4-1        2167        649         2.
  IMPLANTE-2-COPY4-1        2168        648         1.
  IMPLANTE-2-COPY4-1        2168        653         1.
  IMPLANTE-2-COPY4-1        2169        649         2.
  IMPLANTE-2-COPY4-1        2169        670         2.
  IMPLANTE-2-COPY4-1        2170        651         1.
  IMPLANTE-2-COPY4-1        2170        668         1.
  IMPLANTE-2-COPY4-1        2171        651         1.
  IMPLANTE-2-COPY4-1        2171        655         1.
  IMPLANTE-2-COPY4-1        2172        653         1.
  IMPLANTE-2-COPY4-1        2172        672         1.
  IMPLANTE-2-COPY4-1        2173        653         1.
  IMPLANTE-2-COPY4-1        2173        666         1.
  IMPLANTE-2-COPY4-1        2174        653         1.
  IMPLANTE-2-COPY4-1        2174        694         1.
  IMPLANTE-2-COPY4-1        2175        654         2.
  IMPLANTE-2-COPY4-1        2175        674         2.
  IMPLANTE-2-COPY4-1        2176        654         2.
  IMPLANTE-2-COPY4-1        2176        677         2.
  IMPLANTE-2-COPY4-1        2177        654         2.
  IMPLANTE-2-COPY4-1        2177        673         2.
  IMPLANTE-2-COPY4-1        2178        655         1.
  IMPLANTE-2-COPY4-1        2178        684         1.
  IMPLANTE-2-COPY4-1        2179        656         1.
  IMPLANTE-2-COPY4-1        2179        668         1.
  IMPLANTE-2-COPY4-1        2180        656         2.
  IMPLANTE-2-COPY4-1        2180        673         2.
  IMPLANTE-2-COPY4-1        2181        657         1.
  IMPLANTE-2-COPY4-1        2181        676         1.
  IMPLANTE-2-COPY4-1        2182        658   923.E-03
  IMPLANTE-2-COPY4-1        2182        690   923.E-03
  IMPLANTE-2-COPY4-1        2183        659         1.
  IMPLANTE-2-COPY4-1        2183        661         1.
  IMPLANTE-2-COPY4-1        2184        659         1.
  IMPLANTE-2-COPY4-1        2184        676         1.
  IMPLANTE-2-COPY4-1        2185        659         1.
  IMPLANTE-2-COPY4-1        2185        667         1.
  IMPLANTE-2-COPY4-1        2186        659         1.
  IMPLANTE-2-COPY4-1        2186        672         1.
  IMPLANTE-2-COPY4-1        2187        660         2.
  IMPLANTE-2-COPY4-1        2187        675         2.
  IMPLANTE-2-COPY4-1        2188        660         2.
  IMPLANTE-2-COPY4-1        2188        688         2.
  IMPLANTE-2-COPY4-1        2189        660         2.
  IMPLANTE-2-COPY4-1        2189        677         2.
  IMPLANTE-2-COPY4-1        2190        662   684.E-03
  IMPLANTE-2-COPY4-1        2190        697   684.E-03
  IMPLANTE-2-COPY4-1        2191        662   647.E-03
  IMPLANTE-2-COPY4-1        2191        664   647.E-03
  IMPLANTE-2-COPY4-1        2192        663   719.E-03
  IMPLANTE-2-COPY4-1        2192        697   719.E-03
  IMPLANTE-2-COPY4-1        2193        665         1.
  IMPLANTE-2-COPY4-1        2193        667         1.
  IMPLANTE-2-COPY4-1        2194        665         1.
  IMPLANTE-2-COPY4-1        2194        666         1.
  IMPLANTE-2-COPY4-1        2195        665         1.
  IMPLANTE-2-COPY4-1        2195        672         1.
  IMPLANTE-2-COPY4-1        2196        667         2.
  IMPLANTE-2-COPY4-1        2196        687         2.
  IMPLANTE-2-COPY4-1        2197        667         2.
  IMPLANTE-2-COPY4-1        2197        688         2.
  IMPLANTE-2-COPY4-1        2198        668         2.
  IMPLANTE-2-COPY4-1        2198        674         2.
  IMPLANTE-2-COPY4-1        2199        669         2.
  IMPLANTE-2-COPY4-1        2199        679         2.
  IMPLANTE-2-COPY4-1        2200        669         2.
  IMPLANTE-2-COPY4-1        2200        674         2.
  IMPLANTE-2-COPY4-1        2201        670         2.
  IMPLANTE-2-COPY4-1        2201        679         2.
  IMPLANTE-2-COPY4-1        2202        670         2.
  IMPLANTE-2-COPY4-1        2202        682         2.
  IMPLANTE-2-COPY4-1        2203        671         1.
  IMPLANTE-2-COPY4-1        2203        681         1.
  IMPLANTE-2-COPY4-1        2204        671   976.E-03
  IMPLANTE-2-COPY4-1        2204        690   976.E-03
  IMPLANTE-2-COPY4-1        2205        671         1.
  IMPLANTE-2-COPY4-1        2205        693         1.
  IMPLANTE-2-COPY4-1        2206        673         2.
  IMPLANTE-2-COPY4-1        2206        674         2.
  IMPLANTE-2-COPY4-1        2207        675         2.
  IMPLANTE-2-COPY4-1        2207        687         2.
  IMPLANTE-2-COPY4-1        2208        675         2.
  IMPLANTE-2-COPY4-1        2208        688         2.
  IMPLANTE-2-COPY4-1        2209        675         2.
  IMPLANTE-2-COPY4-1        2209        683         2.
  IMPLANTE-2-COPY4-1        2210        676         1.
  IMPLANTE-2-COPY4-1        2210        688         1.
  IMPLANTE-2-COPY4-1        2211        677         2.
  IMPLANTE-2-COPY4-1        2211        683         2.
  IMPLANTE-2-COPY4-1        2212        678   767.E-03
  IMPLANTE-2-COPY4-1        2212        696   767.E-03
  IMPLANTE-2-COPY4-1        2213        680         1.
  IMPLANTE-2-COPY4-1        2213        693         1.
  IMPLANTE-2-COPY4-1        2214        681   970.E-03
  IMPLANTE-2-COPY4-1        2214        690   970.E-03
  IMPLANTE-2-COPY4-1        2215        682         2.
  IMPLANTE-2-COPY4-1        2215        683         2.
  IMPLANTE-2-COPY4-1        2216        682         2.
  IMPLANTE-2-COPY4-1        2216        687         2.
  IMPLANTE-2-COPY4-1        2217        685   457.E-03
  IMPLANTE-2-COPY4-1        2217        686   457.E-03
  IMPLANTE-2-COPY4-1        2218        693         1.
  IMPLANTE-2-COPY4-1        2218        694         1.
  IMPLANTE-2-COPY4-1        2219        695   689.E-03
  IMPLANTE-2-COPY4-1        2219        697   689.E-03
  IMPLANTE-2-COPY4-1        2220        696   722.E-03
  IMPLANTE-2-COPY4-1        2220        697   722.E-03
  OSSO-CUT-1           1         14   315.E-03
  OSSO-CUT-1           1        393   315.E-03
  OSSO-CUT-1           2        460   657.E-03
  OSSO-CUT-1           3        395   125.E-03
  OSSO-CUT-1           4         16   233.E-03
  OSSO-CUT-1           4        472   233.E-03
  OSSO-CUT-1           4        602   233.E-03
  OSSO-CUT-1           5         28    93.E-03
  OSSO-CUT-1           5         29    93.E-03
  OSSO-CUT-1           5        602    93.E-03
  OSSO-CUT-1           6        396   146.E-03
  OSSO-CUT-1           7        224   136.E-03
  OSSO-CUT-1           7        397   136.E-03
  OSSO-CUT-1           8         30   181.E-03
  OSSO-CUT-1           9         21   128.E-03
  OSSO-CUT-1           9         31   128.E-03
  OSSO-CUT-1          10         88   105.E-03
  OSSO-CUT-1          10        556   105.E-03
  OSSO-CUT-1          11         87    83.E-03
  OSSO-CUT-1          11        241    83.E-03
  OSSO-CUT-1          12         85    90.E-03
  OSSO-CUT-1          12        389    90.E-03
  OSSO-CUT-1          13         84   137.E-03
  OSSO-CUT-1          13        400   137.E-03
  OSSO-CUT-1          14         82   217.E-03
  OSSO-CUT-1          14         90   217.E-03
  OSSO-CUT-1          15        195   165.E-03
  OSSO-CUT-1          15        402   165.E-03
  OSSO-CUT-1          15        612   165.E-03
  OSSO-CUT-1          15       1076   165.E-03
  OSSO-CUT-1          16         75   135.E-03
  OSSO-CUT-1          16         76   135.E-03
  OSSO-CUT-1          17         77   110.E-03
  OSSO-CUT-1          17        252   110.E-03
  OSSO-CUT-1          18         51   168.E-03
  OSSO-CUT-1          18        253   168.E-03
  OSSO-CUT-1          19         52   367.E-03
  OSSO-CUT-1          19         54   367.E-03
  OSSO-CUT-1          19        561   367.E-03
  OSSO-CUT-1          20        406   279.E-03
  OSSO-CUT-1          20        542   279.E-03
  OSSO-CUT-1          21        108   280.E-03
  OSSO-CUT-1          21        407   280.E-03
  OSSO-CUT-1          22         97   307.E-03
  OSSO-CUT-1          22        409   307.E-03
  OSSO-CUT-1          23        410   321.E-03
  OSSO-CUT-1          23        548   321.E-03
  OSSO-CUT-1          24        308   319.E-03
  OSSO-CUT-1          24        411   319.E-03
  OSSO-CUT-1          25         99   279.E-03
  OSSO-CUT-1          25        101   279.E-03
  OSSO-CUT-1          26        412   210.E-03
  OSSO-CUT-1          27        413   292.E-03
  OSSO-CUT-1          27        462   292.E-03
  OSSO-CUT-1          28        414   308.E-03
  OSSO-CUT-1          29        102   285.E-03
  OSSO-CUT-1          29        304   285.E-03
  OSSO-CUT-1          29        463   285.E-03
  OSSO-CUT-1          30        120   436.E-03
  OSSO-CUT-1          30        121   436.E-03
  OSSO-CUT-1          30        470   436.E-03
  OSSO-CUT-1          31        122   128.E-03
  OSSO-CUT-1          32        415   213.E-03
  OSSO-CUT-1          32        562   213.E-03
  OSSO-CUT-1          33        416   166.E-03
  OSSO-CUT-1          34        301    72.E-03
  OSSO-CUT-1          34        417    72.E-03
  OSSO-CUT-1          35        123    78.E-03
  OSSO-CUT-1          35        418    78.E-03
  OSSO-CUT-1          36        115   156.E-03
  OSSO-CUT-1          36        418   156.E-03
  OSSO-CUT-1          37        112   715.E-03
  OSSO-CUT-1          37        117   715.E-03
  OSSO-CUT-1          38         63   710.E-03
  OSSO-CUT-1          38        420   710.E-03
  OSSO-CUT-1          39         64         1.
  OSSO-CUT-1          39         65         1.
  OSSO-CUT-1          39        422         1.
  OSSO-CUT-1          40        255   474.E-03
  OSSO-CUT-1          40        494   474.E-03
  OSSO-CUT-1          41        423   580.E-03
  OSSO-CUT-1          41        424   580.E-03
  OSSO-CUT-1          42         35   517.E-03
  OSSO-CUT-1          42        125   517.E-03
  OSSO-CUT-1          43        128   288.E-03
  OSSO-CUT-1          43        426   288.E-03
  OSSO-CUT-1          44         33   158.E-03
  OSSO-CUT-1          44        427   158.E-03
  OSSO-CUT-1          45         32    33.E-03
  OSSO-CUT-1          45        428    33.E-03
  OSSO-CUT-1          46        155   157.E-03
  OSSO-CUT-1          46        430   157.E-03
  OSSO-CUT-1          47        431   285.E-03
  OSSO-CUT-1          47        611   285.E-03
  OSSO-CUT-1          48        165   414.E-03
  OSSO-CUT-1          48        432   414.E-03
  OSSO-CUT-1          49        169   628.E-03
  OSSO-CUT-1          49        434   628.E-03
  OSSO-CUT-1          50        170         1.
  OSSO-CUT-1          51        167   415.E-03
  OSSO-CUT-1          51        435   415.E-03
  OSSO-CUT-1          52        164   238.E-03
  OSSO-CUT-1          52        486   238.E-03
  OSSO-CUT-1          53        160   271.E-03
  OSSO-CUT-1          53        437   271.E-03
  OSSO-CUT-1          54        134   354.E-03
  OSSO-CUT-1          54        438   354.E-03
  OSSO-CUT-1          55        135   460.E-03
  OSSO-CUT-1          55        439   460.E-03
  OSSO-CUT-1          56        171   678.E-03
  OSSO-CUT-1          56        440   678.E-03
  OSSO-CUT-1          57        181   945.E-03
  OSSO-CUT-1          57        481   945.E-03
  OSSO-CUT-1          58        441         2.
  OSSO-CUT-1          59        442         1.
  OSSO-CUT-1          59        529         1.
  OSSO-CUT-1          60        183   900.E-03
  OSSO-CUT-1          60        184   900.E-03
  OSSO-CUT-1          61        185   693.E-03
  OSSO-CUT-1          61        444   693.E-03
  OSSO-CUT-1          62        445   569.E-03
  OSSO-CUT-1          62        534   569.E-03
  OSSO-CUT-1          63        187   394.E-03
  OSSO-CUT-1          63        446   394.E-03
  OSSO-CUT-1          64        190   283.E-03
  OSSO-CUT-1          64        345   283.E-03
  OSSO-CUT-1          65        193   128.E-03
  OSSO-CUT-1          65        447   128.E-03
  OSSO-CUT-1          66         45    32.E-03
  OSSO-CUT-1          66        448    32.E-03
  OSSO-CUT-1          67         46    59.E-03
  OSSO-CUT-1          67        449    59.E-03
  OSSO-CUT-1          68        450   174.E-03
  OSSO-CUT-1          68        517   174.E-03
  OSSO-CUT-1          69         94   223.E-03
  OSSO-CUT-1          69        451   223.E-03
  OSSO-CUT-1          70        247   243.E-03
  OSSO-CUT-1          70        452   243.E-03
  OSSO-CUT-1          71         79   241.E-03
  OSSO-CUT-1          71        194   241.E-03
  OSSO-CUT-1          72         73   244.E-03
  OSSO-CUT-1          72         74   244.E-03
  OSSO-CUT-1          73         72   255.E-03
  OSSO-CUT-1          73        453   255.E-03
  OSSO-CUT-1          74        454   260.E-03
  OSSO-CUT-1          74        522   260.E-03
  OSSO-CUT-1          75        245   305.E-03
  OSSO-CUT-1          75        455   305.E-03
  OSSO-CUT-1          76        204   388.E-03
  OSSO-CUT-1          76        206   388.E-03
  OSSO-CUT-1          77        207   450.E-03
  OSSO-CUT-1          77        208   450.E-03
  OSSO-CUT-1          78        456   493.E-03
  OSSO-CUT-1          78        511   493.E-03
  OSSO-CUT-1          79        457   529.E-03
  OSSO-CUT-1          79        458   529.E-03
  OSSO-CUT-1          80        209   838.E-03
  OSSO-CUT-1          80        210   838.E-03
  OSSO-CUT-1          81        210         2.
  OSSO-CUT-1          81        211         2.
  OSSO-CUT-1          82        212         2.
  OSSO-CUT-1          82        391         2.
  OSSO-CUT-1          83        214   912.E-03
  OSSO-CUT-1          83        491   912.E-03
  OSSO-CUT-1          84         11   667.E-03
  OSSO-CUT-1          84         12   667.E-03
  OSSO-CUT-1          85         13   562.E-03
  OSSO-CUT-1          85        459   562.E-03
  OSSO-CUT-1          86          5   413.E-03
  OSSO-CUT-1          86        510   413.E-03
  OSSO-CUT-1          86        570   413.E-03
  OSSO-CUT-1          86        697   413.E-03
  OSSO-CUT-1          87          1   417.E-03
  OSSO-CUT-1          87         19   417.E-03
  OSSO-CUT-1          87        568   417.E-03
  OSSO-CUT-1          87        674   417.E-03
  OSSO-CUT-1          88          1   515.E-03
  OSSO-CUT-1          88         12   515.E-03
  OSSO-CUT-1          88        459   515.E-03
  OSSO-CUT-1          88        593   515.E-03
  OSSO-CUT-1          88        643   515.E-03
  OSSO-CUT-1          89         15   196.E-03
  OSSO-CUT-1          89         16   196.E-03
  OSSO-CUT-1          89         18   196.E-03
  OSSO-CUT-1          89        468   196.E-03
  OSSO-CUT-1          90        220   270.E-03
  OSSO-CUT-1          90        569   270.E-03
  OSSO-CUT-1          90        601   270.E-03
  OSSO-CUT-1          90        705   270.E-03
  OSSO-CUT-1          91         17   276.E-03
  OSSO-CUT-1          91        221   276.E-03
  OSSO-CUT-1          91        635   276.E-03
  OSSO-CUT-1          92        218   356.E-03
  OSSO-CUT-1          92        579   356.E-03
  OSSO-CUT-1          92        636   356.E-03
  OSSO-CUT-1          92        714   356.E-03
  OSSO-CUT-1          93        212   480.E-03
  OSSO-CUT-1          93        391   480.E-03
  OSSO-CUT-1          93        580   480.E-03
  OSSO-CUT-1          93        638   480.E-03
  OSSO-CUT-1          94        217   135.E-03
  OSSO-CUT-1          94        691   135.E-03
  OSSO-CUT-1          94        735   135.E-03
  OSSO-CUT-1          94        827   135.E-03
  OSSO-CUT-1          95        216   165.E-03
  OSSO-CUT-1          95        701   165.E-03
  OSSO-CUT-1          95        748   165.E-03
  OSSO-CUT-1          95        816   165.E-03
  OSSO-CUT-1          96        815   148.E-03
  OSSO-CUT-1          96        853   148.E-03
  OSSO-CUT-1          96        895   148.E-03
  OSSO-CUT-1          96       1096   148.E-03
  OSSO-CUT-1          97        637   295.E-03
  OSSO-CUT-1          97        742   295.E-03
  OSSO-CUT-1          97        781   295.E-03
  OSSO-CUT-1          97        813   295.E-03
  OSSO-CUT-1          98          8   630.E-03
  OSSO-CUT-1          98        223   630.E-03
  OSSO-CUT-1          98        493   630.E-03
  OSSO-CUT-1          98        642   630.E-03
  OSSO-CUT-1          99         20    94.E-03
  OSSO-CUT-1          99        398    94.E-03
  OSSO-CUT-1          99        476    94.E-03
  OSSO-CUT-1          99        634    94.E-03
  OSSO-CUT-1         100         23    79.E-03
  OSSO-CUT-1         100        226    79.E-03
  OSSO-CUT-1         100        228    79.E-03
  OSSO-CUT-1         100        735    79.E-03
  OSSO-CUT-1         101         27    84.E-03
  OSSO-CUT-1         101        230    84.E-03
  OSSO-CUT-1         101        805    84.E-03
  OSSO-CUT-1         102         26   186.E-03
  OSSO-CUT-1         102        809   186.E-03
  OSSO-CUT-1         102        928   186.E-03
  OSSO-CUT-1         103          3   322.E-03
  OSSO-CUT-1         103         25   322.E-03
  OSSO-CUT-1         103        650   322.E-03
  OSSO-CUT-1         103        743   322.E-03
  OSSO-CUT-1         104          4   487.E-03
  OSSO-CUT-1         104          7   487.E-03
  OSSO-CUT-1         104        222   487.E-03
  OSSO-CUT-1         104        497   487.E-03
  OSSO-CUT-1         105        399    69.E-03
  OSSO-CUT-1         105        553    69.E-03
  OSSO-CUT-1         105        557    69.E-03
  OSSO-CUT-1         105        676    69.E-03
  OSSO-CUT-1         106         22    62.E-03
  OSSO-CUT-1         106        235    62.E-03
  OSSO-CUT-1         106        729    62.E-03
  OSSO-CUT-1         106        765    62.E-03
  OSSO-CUT-1         107        227   100.E-03
  OSSO-CUT-1         107        234   100.E-03
  OSSO-CUT-1         107        915   100.E-03
  OSSO-CUT-1         107        917   100.E-03
  OSSO-CUT-1         108        229   184.E-03
  OSSO-CUT-1         108        838   184.E-03
  OSSO-CUT-1         108        847   184.E-03
  OSSO-CUT-1         108        943   184.E-03
  OSSO-CUT-1         109        671   315.E-03
  OSSO-CUT-1         109        672   315.E-03
  OSSO-CUT-1         109        770   315.E-03
  OSSO-CUT-1         109        810   315.E-03
  OSSO-CUT-1         110        242    72.E-03
  OSSO-CUT-1         110        554    72.E-03
  OSSO-CUT-1         110        667    72.E-03
  OSSO-CUT-1         110        883    72.E-03
  OSSO-CUT-1         111        232   110.E-03
  OSSO-CUT-1         111        817   110.E-03
  OSSO-CUT-1         111        916   110.E-03
  OSSO-CUT-1         111       1110   110.E-03
  OSSO-CUT-1         112        238   190.E-03
  OSSO-CUT-1         112        801   190.E-03
  OSSO-CUT-1         112        868   190.E-03
  OSSO-CUT-1         112        901   190.E-03
  OSSO-CUT-1         112       1100   190.E-03
  OSSO-CUT-1         113        708   289.E-03
  OSSO-CUT-1         113        709   289.E-03
  OSSO-CUT-1         113        767   289.E-03
  OSSO-CUT-1         113       1115   289.E-03
  OSSO-CUT-1         114        198   419.E-03
  OSSO-CUT-1         114        207   419.E-03
  OSSO-CUT-1         114        571   419.E-03
  OSSO-CUT-1         114        678   419.E-03
  OSSO-CUT-1         115         86    78.E-03
  OSSO-CUT-1         115        241    78.E-03
  OSSO-CUT-1         115        390    78.E-03
  OSSO-CUT-1         115        554    78.E-03
  OSSO-CUT-1         116        558   132.E-03
  OSSO-CUT-1         116        559   132.E-03
  OSSO-CUT-1         116        807   132.E-03
  OSSO-CUT-1         116        879   132.E-03
  OSSO-CUT-1         117        237   208.E-03
  OSSO-CUT-1         117        706   208.E-03
  OSSO-CUT-1         117        839   208.E-03
  OSSO-CUT-1         117        871   208.E-03
  OSSO-CUT-1         118        246   278.E-03
  OSSO-CUT-1         118        610   278.E-03
  OSSO-CUT-1         118        613   278.E-03
  OSSO-CUT-1         118        804   278.E-03
  OSSO-CUT-1         118       1073   278.E-03
  OSSO-CUT-1         119        206   376.E-03
  OSSO-CUT-1         119        208   376.E-03
  OSSO-CUT-1         119        239   376.E-03
  OSSO-CUT-1         119        526   376.E-03
  OSSO-CUT-1         120        243   135.E-03
  OSSO-CUT-1         120        389   135.E-03
  OSSO-CUT-1         120        400   135.E-03
  OSSO-CUT-1         120        558   135.E-03
  OSSO-CUT-1         121        599   214.E-03
  OSSO-CUT-1         121        695   214.E-03
  OSSO-CUT-1         121        696   214.E-03
  OSSO-CUT-1         121        700   214.E-03
  OSSO-CUT-1         121        716   214.E-03
  OSSO-CUT-1         122        201   274.E-03
  OSSO-CUT-1         122        202   274.E-03
  OSSO-CUT-1         122        614   274.E-03
  OSSO-CUT-1         122        624   274.E-03
  OSSO-CUT-1         123         89   210.E-03
  OSSO-CUT-1         123         90   210.E-03
  OSSO-CUT-1         123        555   210.E-03
  OSSO-CUT-1         123        716   210.E-03
  OSSO-CUT-1         124        196   265.E-03
  OSSO-CUT-1         124        523   265.E-03
  OSSO-CUT-1         124        615   265.E-03
  OSSO-CUT-1         124       1079   265.E-03
  OSSO-CUT-1         125        401   233.E-03
  OSSO-CUT-1         125        402   233.E-03
  OSSO-CUT-1         125        524   233.E-03
  OSSO-CUT-1         125        616   233.E-03
  OSSO-CUT-1         126         75   144.E-03
  OSSO-CUT-1         126         76   144.E-03
  OSSO-CUT-1         126        537   144.E-03
  OSSO-CUT-1         126        626   144.E-03
  OSSO-CUT-1         127         73   192.E-03
  OSSO-CUT-1         127        194   192.E-03
  OSSO-CUT-1         127        403   192.E-03
  OSSO-CUT-1         127        519   192.E-03
  OSSO-CUT-1         127        626   192.E-03
  OSSO-CUT-1         128        252   113.E-03
  OSSO-CUT-1         128        404   113.E-03
  OSSO-CUT-1         128        538   113.E-03
  OSSO-CUT-1         128        539   113.E-03
  OSSO-CUT-1         129         80   147.E-03
  OSSO-CUT-1         129        625   147.E-03
  OSSO-CUT-1         129        882   147.E-03
  OSSO-CUT-1         130         50   211.E-03
  OSSO-CUT-1         130         51   211.E-03
  OSSO-CUT-1         130        405   211.E-03
  OSSO-CUT-1         130        536   211.E-03
  OSSO-CUT-1         131         91   149.E-03
  OSSO-CUT-1         131        248   149.E-03
  OSSO-CUT-1         131        657   149.E-03
  OSSO-CUT-1         131        698   149.E-03
  OSSO-CUT-1         132         92   131.E-03
  OSSO-CUT-1         132        621   131.E-03
  OSSO-CUT-1         132        623   131.E-03
  OSSO-CUT-1         132        734   131.E-03
  OSSO-CUT-1         133         64   582.E-03
  OSSO-CUT-1         133         65   582.E-03
  OSSO-CUT-1         133        256   582.E-03
  OSSO-CUT-1         133        597   582.E-03
  OSSO-CUT-1         134        260   488.E-03
  OSSO-CUT-1         134        464   488.E-03
  OSSO-CUT-1         134        584   488.E-03
  OSSO-CUT-1         134        703   488.E-03
  OSSO-CUT-1         135        739   425.E-03
  OSSO-CUT-1         135        746   425.E-03
  OSSO-CUT-1         135        819   425.E-03
  OSSO-CUT-1         135       1103   425.E-03
  OSSO-CUT-1         136        275   385.E-03
  OSSO-CUT-1         136        278   385.E-03
  OSSO-CUT-1         136        818   385.E-03
  OSSO-CUT-1         136        855   385.E-03
  OSSO-CUT-1         137        279   376.E-03
  OSSO-CUT-1         137        944   376.E-03
  OSSO-CUT-1         137        963   376.E-03
  OSSO-CUT-1         137        970   376.E-03
  OSSO-CUT-1         138        654   340.E-03
  OSSO-CUT-1         138        796   340.E-03
  OSSO-CUT-1         138        820   340.E-03
  OSSO-CUT-1         138        950   340.E-03
  OSSO-CUT-1         139         53   318.E-03
  OSSO-CUT-1         139         54   318.E-03
  OSSO-CUT-1         139        282   318.E-03
  OSSO-CUT-1         139        560   318.E-03
  OSSO-CUT-1         139        645   318.E-03
  OSSO-CUT-1         140        249   257.E-03
  OSSO-CUT-1         140        644   257.E-03
  OSSO-CUT-1         140        682   257.E-03
  OSSO-CUT-1         140        811   257.E-03
  OSSO-CUT-1         141        284   200.E-03
  OSSO-CUT-1         141        762   200.E-03
  OSSO-CUT-1         141        763   200.E-03
  OSSO-CUT-1         141       1094   200.E-03
  OSSO-CUT-1         142         48   121.E-03
  OSSO-CUT-1         142         49   121.E-03
  OSSO-CUT-1         142        285   121.E-03
  OSSO-CUT-1         142        518   121.E-03
  OSSO-CUT-1         143         56   326.E-03
  OSSO-CUT-1         143        280   326.E-03
  OSSO-CUT-1         143        287   326.E-03
  OSSO-CUT-1         143        544   326.E-03
  OSSO-CUT-1         144        287   335.E-03
  OSSO-CUT-1         144        288   335.E-03
  OSSO-CUT-1         144        564   335.E-03
  OSSO-CUT-1         144        663   335.E-03
  OSSO-CUT-1         144        919   335.E-03
  OSSO-CUT-1         145        276   346.E-03
  OSSO-CUT-1         145        840   346.E-03
  OSSO-CUT-1         145        918   346.E-03
  OSSO-CUT-1         145        920   346.E-03
  OSSO-CUT-1         146        261   380.E-03
  OSSO-CUT-1         146        849   380.E-03
  OSSO-CUT-1         146        936   380.E-03
  OSSO-CUT-1         146       1072   380.E-03
  OSSO-CUT-1         147         60   425.E-03
  OSSO-CUT-1         147        653   425.E-03
  OSSO-CUT-1         147        712   425.E-03
  OSSO-CUT-1         147       1074   425.E-03
  OSSO-CUT-1         148        257   562.E-03
  OSSO-CUT-1         148        258   562.E-03
  OSSO-CUT-1         148        465   562.E-03
  OSSO-CUT-1         148        469   562.E-03
  OSSO-CUT-1         149         57   304.E-03
  OSSO-CUT-1         149         58   304.E-03
  OSSO-CUT-1         149        543   304.E-03
  OSSO-CUT-1         149        662   304.E-03
  OSSO-CUT-1         150         58   313.E-03
  OSSO-CUT-1         150        572   313.E-03
  OSSO-CUT-1         150        687   313.E-03
  OSSO-CUT-1         150        732   313.E-03
  OSSO-CUT-1         151        290   347.E-03
  OSSO-CUT-1         151        764   347.E-03
  OSSO-CUT-1         151        907   347.E-03
  OSSO-CUT-1         151        909   347.E-03
  OSSO-CUT-1         151       1099   347.E-03
  OSSO-CUT-1         152        262   386.E-03
  OSSO-CUT-1         152        295   386.E-03
  OSSO-CUT-1         152        798   386.E-03
  OSSO-CUT-1         152        865   386.E-03
  OSSO-CUT-1         152        866   386.E-03
  OSSO-CUT-1         153        111   458.E-03
  OSSO-CUT-1         153        294   458.E-03
  OSSO-CUT-1         153        736   458.E-03
  OSSO-CUT-1         153        750   458.E-03
  OSSO-CUT-1         154        112   568.E-03
  OSSO-CUT-1         154        420   568.E-03
  OSSO-CUT-1         154        656   568.E-03
  OSSO-CUT-1         154        932   568.E-03
  OSSO-CUT-1         155         96   311.E-03
  OSSO-CUT-1         155        106   311.E-03
  OSSO-CUT-1         155        547   311.E-03
  OSSO-CUT-1         155        731   311.E-03
  OSSO-CUT-1         156        291   332.E-03
  OSSO-CUT-1         156        546   332.E-03
  OSSO-CUT-1         156       1012   332.E-03
  OSSO-CUT-1         156       1088   332.E-03
  OSSO-CUT-1         157        292   400.E-03
  OSSO-CUT-1         157        737   400.E-03
  OSSO-CUT-1         157        869   400.E-03
  OSSO-CUT-1         157        897   400.E-03
  OSSO-CUT-1         157        940   400.E-03
  OSSO-CUT-1         158        736   434.E-03
  OSSO-CUT-1         158        869   434.E-03
  OSSO-CUT-1         158        885   434.E-03
  OSSO-CUT-1         159        306   455.E-03
  OSSO-CUT-1         159        419   455.E-03
  OSSO-CUT-1         159        831   455.E-03
  OSSO-CUT-1         159        932   455.E-03
  OSSO-CUT-1         159       1081   455.E-03
  OSSO-CUT-1         160        114   310.E-03
  OSSO-CUT-1         160        115   310.E-03
  OSSO-CUT-1         160        116   310.E-03
  OSSO-CUT-1         160        418   310.E-03
  OSSO-CUT-1         161        303   328.E-03
  OSSO-CUT-1         161        546   328.E-03
  OSSO-CUT-1         161        549   328.E-03
  OSSO-CUT-1         161        971   328.E-03
  OSSO-CUT-1         162        105   350.E-03
  OSSO-CUT-1         162        628   350.E-03
  OSSO-CUT-1         162        707   350.E-03
  OSSO-CUT-1         162        814   350.E-03
  OSSO-CUT-1         163        711   394.E-03
  OSSO-CUT-1         163        786   394.E-03
  OSSO-CUT-1         163        822   394.E-03
  OSSO-CUT-1         163        851   394.E-03
  OSSO-CUT-1         164        582   421.E-03
  OSSO-CUT-1         164        596   421.E-03
  OSSO-CUT-1         164        710   421.E-03
  OSSO-CUT-1         164       1080   421.E-03
  OSSO-CUT-1         165        478   305.E-03
  OSSO-CUT-1         165        563   305.E-03
  OSSO-CUT-1         165        673   305.E-03
  OSSO-CUT-1         165        785   305.E-03
  OSSO-CUT-1         166        307   318.E-03
  OSSO-CUT-1         166        551   318.E-03
  OSSO-CUT-1         166        688   318.E-03
  OSSO-CUT-1         166        745   318.E-03
  OSSO-CUT-1         167        119   251.E-03
  OSSO-CUT-1         167        121   251.E-03
  OSSO-CUT-1         167        122   251.E-03
  OSSO-CUT-1         167        415   251.E-03
  OSSO-CUT-1         168        100   297.E-03
  OSSO-CUT-1         168        103   297.E-03
  OSSO-CUT-1         168        545   297.E-03
  OSSO-CUT-1         168        685   297.E-03
  OSSO-CUT-1         169         69   516.E-03
  OSSO-CUT-1         169        587   516.E-03
  OSSO-CUT-1         169        607   516.E-03
  OSSO-CUT-1         169        690   516.E-03
  OSSO-CUT-1         170         68   455.E-03
  OSSO-CUT-1         170        264   455.E-03
  OSSO-CUT-1         170        730   455.E-03
  OSSO-CUT-1         170        960   455.E-03
  OSSO-CUT-1         171        263   415.E-03
  OSSO-CUT-1         171        898   415.E-03
  OSSO-CUT-1         171        986   415.E-03
  OSSO-CUT-1         171       1021   415.E-03
  OSSO-CUT-1         172        271   395.E-03
  OSSO-CUT-1         172        945   395.E-03
  OSSO-CUT-1         172        970   395.E-03
  OSSO-CUT-1         172       1010   395.E-03
  OSSO-CUT-1         173        274   365.E-03
  OSSO-CUT-1         173        310   365.E-03
  OSSO-CUT-1         173        821   365.E-03
  OSSO-CUT-1         173        950   365.E-03
  OSSO-CUT-1         174        269   333.E-03
  OSSO-CUT-1         174        806   333.E-03
  OSSO-CUT-1         174        858   333.E-03
  OSSO-CUT-1         175        270   292.E-03
  OSSO-CUT-1         175        311   292.E-03
  OSSO-CUT-1         175        812   292.E-03
  OSSO-CUT-1         175        905   292.E-03
  OSSO-CUT-1         176        589   203.E-03
  OSSO-CUT-1         176        660   203.E-03
  OSSO-CUT-1         176        803   203.E-03
  OSSO-CUT-1         176       1109   203.E-03
  OSSO-CUT-1         177        313   109.E-03
  OSSO-CUT-1         177        513   109.E-03
  OSSO-CUT-1         177        515   109.E-03
  OSSO-CUT-1         177        661   109.E-03
  OSSO-CUT-1         178         45    71.E-03
  OSSO-CUT-1         178        449    71.E-03
  OSSO-CUT-1         178        590    71.E-03
  OSSO-CUT-1         178        984    71.E-03
  OSSO-CUT-1         179         43   196.E-03
  OSSO-CUT-1         179        312   196.E-03
  OSSO-CUT-1         179        589   196.E-03
  OSSO-CUT-1         179        942   196.E-03
  OSSO-CUT-1         179        952   196.E-03
  OSSO-CUT-1         180        251   305.E-03
  OSSO-CUT-1         180        947   305.E-03
  OSSO-CUT-1         180        951   305.E-03
  OSSO-CUT-1         180        974   305.E-03
  OSSO-CUT-1         181        267   369.E-03
  OSSO-CUT-1         181        268   369.E-03
  OSSO-CUT-1         181        930   369.E-03
  OSSO-CUT-1         181       1104   369.E-03
  OSSO-CUT-1         182         39   413.E-03
  OSSO-CUT-1         182       1001   413.E-03
  OSSO-CUT-1         182       1016   413.E-03
  OSSO-CUT-1         182       1075   413.E-03
  OSSO-CUT-1         183       1008   423.E-03
  OSSO-CUT-1         183       1009   423.E-03
  OSSO-CUT-1         183       1011   423.E-03
  OSSO-CUT-1         183       1029   423.E-03
  OSSO-CUT-1         183       1045   423.E-03
  OSSO-CUT-1         184        966   432.E-03
  OSSO-CUT-1         184        980   432.E-03
  OSSO-CUT-1         184        989   432.E-03
  OSSO-CUT-1         184       1113   432.E-03
  OSSO-CUT-1         185         70   441.E-03
  OSSO-CUT-1         185        741   441.E-03
  OSSO-CUT-1         185        829   441.E-03
  OSSO-CUT-1         185        830   441.E-03
  OSSO-CUT-1         186         67   477.E-03
  OSSO-CUT-1         186        126   477.E-03
  OSSO-CUT-1         186        498   477.E-03
  OSSO-CUT-1         186        689   477.E-03
  OSSO-CUT-1         187         36   418.E-03
  OSSO-CUT-1         187        127   418.E-03
  OSSO-CUT-1         187        318   418.E-03
  OSSO-CUT-1         187        495   418.E-03
  OSSO-CUT-1         188         37   437.E-03
  OSSO-CUT-1         188        324   437.E-03
  OSSO-CUT-1         188        740   437.E-03
  OSSO-CUT-1         188        794   437.E-03
  OSSO-CUT-1         189        326   449.E-03
  OSSO-CUT-1         189        861   449.E-03
  OSSO-CUT-1         189        889   449.E-03
  OSSO-CUT-1         190        326   450.E-03
  OSSO-CUT-1         190        327   450.E-03
  OSSO-CUT-1         190       1028   450.E-03
  OSSO-CUT-1         190       1043   450.E-03
  OSSO-CUT-1         190       1061   450.E-03
  OSSO-CUT-1         191        999   443.E-03
  OSSO-CUT-1         191       1004   443.E-03
  OSSO-CUT-1         191       1017   443.E-03
  OSSO-CUT-1         191       1056   443.E-03
  OSSO-CUT-1         192        923   395.E-03
  OSSO-CUT-1         192        981   395.E-03
  OSSO-CUT-1         192       1005   395.E-03
  OSSO-CUT-1         192       1039   395.E-03
  OSSO-CUT-1         193        833   335.E-03
  OSSO-CUT-1         193        922   335.E-03
  OSSO-CUT-1         193        961   335.E-03
  OSSO-CUT-1         193       1106   335.E-03
  OSSO-CUT-1         194        179   277.E-03
  OSSO-CUT-1         194        792   277.E-03
  OSSO-CUT-1         194        890   277.E-03
  OSSO-CUT-1         194       1106   277.E-03
  OSSO-CUT-1         195         44   132.E-03
  OSSO-CUT-1         195        193   132.E-03
  OSSO-CUT-1         195        448   132.E-03
  OSSO-CUT-1         195        872   132.E-03
  OSSO-CUT-1         196         34   355.E-03
  OSSO-CUT-1         196        328   355.E-03
  OSSO-CUT-1         196        496   355.E-03
  OSSO-CUT-1         196        591   355.E-03
  OSSO-CUT-1         197        319   413.E-03
  OSSO-CUT-1         197        325   413.E-03
  OSSO-CUT-1         197        592   413.E-03
  OSSO-CUT-1         197        721   413.E-03
  OSSO-CUT-1         198        893   450.E-03
  OSSO-CUT-1         198        903   450.E-03
  OSSO-CUT-1         198        982   450.E-03
  OSSO-CUT-1         198        990   450.E-03
  OSSO-CUT-1         199        967   470.E-03
  OSSO-CUT-1         199        983   470.E-03
  OSSO-CUT-1         199       1063   470.E-03
  OSSO-CUT-1         199       1119   470.E-03
  OSSO-CUT-1         200        334   476.E-03
  OSSO-CUT-1         200        978   476.E-03
  OSSO-CUT-1         200       1034   476.E-03
  OSSO-CUT-1         200       1052   476.E-03
  OSSO-CUT-1         200       1069   476.E-03
  OSSO-CUT-1         201        145   446.E-03
  OSSO-CUT-1         201        878   446.E-03
  OSSO-CUT-1         201        949   446.E-03
  OSSO-CUT-1         201        964   446.E-03
  OSSO-CUT-1         201        979   446.E-03
  OSSO-CUT-1         202        180   388.E-03
  OSSO-CUT-1         202        738   388.E-03
  OSSO-CUT-1         202        744   388.E-03
  OSSO-CUT-1         202        877   388.E-03
  OSSO-CUT-1         203        178   314.E-03
  OSSO-CUT-1         203        189   314.E-03
  OSSO-CUT-1         203        680   314.E-03
  OSSO-CUT-1         203        766   314.E-03
  OSSO-CUT-1         204        191   212.E-03
  OSSO-CUT-1         204        447   212.E-03
  OSSO-CUT-1         204        679   212.E-03
  OSSO-CUT-1         204        835   212.E-03
  OSSO-CUT-1         205        500   280.E-03
  OSSO-CUT-1         205        502   280.E-03
  OSSO-CUT-1         205        717   280.E-03
  OSSO-CUT-1         205        995   280.E-03
  OSSO-CUT-1         206        337   367.E-03
  OSSO-CUT-1         206        341   367.E-03
  OSSO-CUT-1         206        718   367.E-03
  OSSO-CUT-1         206        959   367.E-03
  OSSO-CUT-1         207        329   445.E-03
  OSSO-CUT-1         207        353   445.E-03
  OSSO-CUT-1         207        954   445.E-03
  OSSO-CUT-1         207       1002   445.E-03
  OSSO-CUT-1         208        320   486.E-03
  OSSO-CUT-1         208       1003   486.E-03
  OSSO-CUT-1         208       1053   486.E-03
  OSSO-CUT-1         208       1070   486.E-03
  OSSO-CUT-1         209        144   481.E-03
  OSSO-CUT-1         209        336   481.E-03
  OSSO-CUT-1         209        875   481.E-03
  OSSO-CUT-1         209        886   481.E-03
  OSSO-CUT-1         209        887   481.E-03
  OSSO-CUT-1         210        724   421.E-03
  OSSO-CUT-1         210        725   421.E-03
  OSSO-CUT-1         210        808   421.E-03
  OSSO-CUT-1         210       1121   421.E-03
  OSSO-CUT-1         211        344   363.E-03
  OSSO-CUT-1         211        620   363.E-03
  OSSO-CUT-1         211        622   363.E-03
  OSSO-CUT-1         211        640   363.E-03
  OSSO-CUT-1         212        501   222.E-03
  OSSO-CUT-1         212        504   222.E-03
  OSSO-CUT-1         212        996   222.E-03
  OSSO-CUT-1         212       1042   222.E-03
  OSSO-CUT-1         213        347   299.E-03
  OSSO-CUT-1         213        501   299.E-03
  OSSO-CUT-1         213        503   299.E-03
  OSSO-CUT-1         213        997   299.E-03
  OSSO-CUT-1         213       1015   299.E-03
  OSSO-CUT-1         214        338   436.E-03
  OSSO-CUT-1         214       1002   436.E-03
  OSSO-CUT-1         214       1026   436.E-03
  OSSO-CUT-1         214       1030   436.E-03
  OSSO-CUT-1         215       1046   501.E-03
  OSSO-CUT-1         215       1047   501.E-03
  OSSO-CUT-1         215       1048   501.E-03
  OSSO-CUT-1         215       1057   501.E-03
  OSSO-CUT-1         216        149   515.E-03
  OSSO-CUT-1         216        321   515.E-03
  OSSO-CUT-1         216        985   515.E-03
  OSSO-CUT-1         216       1059   515.E-03
  OSSO-CUT-1         217        142   501.E-03
  OSSO-CUT-1         217        342   501.E-03
  OSSO-CUT-1         217        754   501.E-03
  OSSO-CUT-1         217        787   501.E-03
  OSSO-CUT-1         218        177   434.E-03
  OSSO-CUT-1         218        354   434.E-03
  OSSO-CUT-1         218        618   434.E-03
  OSSO-CUT-1         218        619   434.E-03
  OSSO-CUT-1         219        129   181.E-03
  OSSO-CUT-1         219       1006   181.E-03
  OSSO-CUT-1         219       1032   181.E-03
  OSSO-CUT-1         219       1033   181.E-03
  OSSO-CUT-1         220        347   325.E-03
  OSSO-CUT-1         220        360   325.E-03
  OSSO-CUT-1         220        935   325.E-03
  OSSO-CUT-1         220        956   325.E-03
  OSSO-CUT-1         221        912   411.E-03
  OSSO-CUT-1         221        933   411.E-03
  OSSO-CUT-1         221        957   411.E-03
  OSSO-CUT-1         221       1035   411.E-03
  OSSO-CUT-1         221       1111   411.E-03
  OSSO-CUT-1         222        331   510.E-03
  OSSO-CUT-1         222       1025   510.E-03
  OSSO-CUT-1         222       1040   510.E-03
  OSSO-CUT-1         222       1067   510.E-03
  OSSO-CUT-1         223        969   547.E-03
  OSSO-CUT-1         223        987   547.E-03
  OSSO-CUT-1         223        991   547.E-03
  OSSO-CUT-1         223       1051   547.E-03
  OSSO-CUT-1         223       1066   547.E-03
  OSSO-CUT-1         224        142   535.E-03
  OSSO-CUT-1         224        775   535.E-03
  OSSO-CUT-1         224       1020   535.E-03
  OSSO-CUT-1         224       1127   535.E-03
  OSSO-CUT-1         225        363   519.E-03
  OSSO-CUT-1         225        754   519.E-03
  OSSO-CUT-1         225        902   519.E-03
  OSSO-CUT-1         225        921   519.E-03
  OSSO-CUT-1         226        532   502.E-03
  OSSO-CUT-1         226        535   502.E-03
  OSSO-CUT-1         226        617   502.E-03
  OSSO-CUT-1         226        633   502.E-03
  OSSO-CUT-1         227        130   225.E-03
  OSSO-CUT-1         227        156   225.E-03
  OSSO-CUT-1         227        355   225.E-03
  OSSO-CUT-1         227        505   225.E-03
  OSSO-CUT-1         228        355   306.E-03
  OSSO-CUT-1         228        365   306.E-03
  OSSO-CUT-1         228        771   306.E-03
  OSSO-CUT-1         228       1087   306.E-03
  OSSO-CUT-1         229        348   414.E-03
  OSSO-CUT-1         229        372   414.E-03
  OSSO-CUT-1         229        837   414.E-03
  OSSO-CUT-1         229        862   414.E-03
  OSSO-CUT-1         229        975   414.E-03
  OSSO-CUT-1         230        958   508.E-03
  OSSO-CUT-1         230       1022   508.E-03
  OSSO-CUT-1         230       1050   508.E-03
  OSSO-CUT-1         230       1055   508.E-03
  OSSO-CUT-1         231        340   550.E-03
  OSSO-CUT-1         231        988   550.E-03
  OSSO-CUT-1         231       1023   550.E-03
  OSSO-CUT-1         231       1125   550.E-03
  OSSO-CUT-1         232       1118   598.E-03
  OSSO-CUT-1         232       1122   598.E-03
  OSSO-CUT-1         232       1123   598.E-03
  OSSO-CUT-1         233        140   615.E-03
  OSSO-CUT-1         233        585   615.E-03
  OSSO-CUT-1         233        649   615.E-03
  OSSO-CUT-1         233        774   615.E-03
  OSSO-CUT-1         234        175   644.E-03
  OSSO-CUT-1         234        369   644.E-03
  OSSO-CUT-1         234        376   644.E-03
  OSSO-CUT-1         234        533   644.E-03
  OSSO-CUT-1         235        161   250.E-03
  OSSO-CUT-1         235        684   250.E-03
  OSSO-CUT-1         235        789   250.E-03
  OSSO-CUT-1         235        790   250.E-03
  OSSO-CUT-1         236        371   312.E-03
  OSSO-CUT-1         236        506   312.E-03
  OSSO-CUT-1         236        836   312.E-03
  OSSO-CUT-1         236        863   312.E-03
  OSSO-CUT-1         237        802   381.E-03
  OSSO-CUT-1         237        824   381.E-03
  OSSO-CUT-1         237        975   381.E-03
  OSSO-CUT-1         237       1114   381.E-03
  OSSO-CUT-1         238        357   465.E-03
  OSSO-CUT-1         238        778   465.E-03
  OSSO-CUT-1         238        992   465.E-03
  OSSO-CUT-1         238        993   465.E-03
  OSSO-CUT-1         238       1036   465.E-03
  OSSO-CUT-1         239        151   559.E-03
  OSSO-CUT-1         239        374   559.E-03
  OSSO-CUT-1         239        828   559.E-03
  OSSO-CUT-1         239        857   559.E-03
  OSSO-CUT-1         240        152   635.E-03
  OSSO-CUT-1         240        368   635.E-03
  OSSO-CUT-1         240        799   635.E-03
  OSSO-CUT-1         240        881   635.E-03
  OSSO-CUT-1         240       1014   635.E-03
  OSSO-CUT-1         241        139   714.E-03
  OSSO-CUT-1         241        722   714.E-03
  OSSO-CUT-1         241        723   714.E-03
  OSSO-CUT-1         241        832   714.E-03
  OSSO-CUT-1         242        375   749.E-03
  OSSO-CUT-1         242        380   749.E-03
  OSSO-CUT-1         242        381   749.E-03
  OSSO-CUT-1         242        531   749.E-03
  OSSO-CUT-1         243        377   353.E-03
  OSSO-CUT-1         243        508   353.E-03
  OSSO-CUT-1         243        509   353.E-03
  OSSO-CUT-1         243        669   353.E-03
  OSSO-CUT-1         244        668   321.E-03
  OSSO-CUT-1         244        720   321.E-03
  OSSO-CUT-1         244        946   321.E-03
  OSSO-CUT-1         244       1091   321.E-03
  OSSO-CUT-1         245        378   371.E-03
  OSSO-CUT-1         245        379   371.E-03
  OSSO-CUT-1         245        777   371.E-03
  OSSO-CUT-1         245       1092   371.E-03
  OSSO-CUT-1         246        350   426.E-03
  OSSO-CUT-1         246        692   426.E-03
  OSSO-CUT-1         246        715   426.E-03
  OSSO-CUT-1         246        757   426.E-03
  OSSO-CUT-1         246        776   426.E-03
  OSSO-CUT-1         247        605   518.E-03
  OSSO-CUT-1         247        783   518.E-03
  OSSO-CUT-1         247        900   518.E-03
  OSSO-CUT-1         247       1098   518.E-03
  OSSO-CUT-1         248        772   636.E-03
  OSSO-CUT-1         248        860   636.E-03
  OSSO-CUT-1         248        914   636.E-03
  OSSO-CUT-1         248       1083   636.E-03
  OSSO-CUT-1         249        138   779.E-03
  OSSO-CUT-1         249        173   779.E-03
  OSSO-CUT-1         249        174   779.E-03
  OSSO-CUT-1         249        373   779.E-03
  OSSO-CUT-1         250        387   865.E-03
  OSSO-CUT-1         250        530   865.E-03
  OSSO-CUT-1         250        578   865.E-03
  OSSO-CUT-1         250        652   865.E-03
  OSSO-CUT-1         251        382   422.E-03
  OSSO-CUT-1         251        433   422.E-03
  OSSO-CUT-1         251        485   422.E-03
  OSSO-CUT-1         251        487   422.E-03
  OSSO-CUT-1         252        163   314.E-03
  OSSO-CUT-1         252        168   314.E-03
  OSSO-CUT-1         252        606   314.E-03
  OSSO-CUT-1         252        755   314.E-03
  OSSO-CUT-1         253        159   319.E-03
  OSSO-CUT-1         253        383   319.E-03
  OSSO-CUT-1         253        384   319.E-03
  OSSO-CUT-1         253        489   319.E-03
  OSSO-CUT-1         254        132   383.E-03
  OSSO-CUT-1         254        385   383.E-03
  OSSO-CUT-1         254        488   383.E-03
  OSSO-CUT-1         254        490   383.E-03
  OSSO-CUT-1         255        153   495.E-03
  OSSO-CUT-1         255        358   495.E-03
  OSSO-CUT-1         255        604   495.E-03
  OSSO-CUT-1         255        605   495.E-03
  OSSO-CUT-1         256        137   606.E-03
  OSSO-CUT-1         256        484   606.E-03
  OSSO-CUT-1         256        639   606.E-03
  OSSO-CUT-1         256       1084   606.E-03
  OSSO-CUT-1         257        172   854.E-03
  OSSO-CUT-1         257        386   854.E-03
  OSSO-CUT-1         257        483   854.E-03
  OSSO-CUT-1         257        603   854.E-03
  OSSO-CUT-1         258        182   991.E-03
  OSSO-CUT-1         258        386   991.E-03
  OSSO-CUT-1         258        483   991.E-03
  OSSO-CUT-1         258        577   991.E-03
  OSSO-CUT-1         259        460   441.E-03
  OSSO-CUT-1         259        466   441.E-03
  OSSO-CUT-1         260        392   403.E-03
  OSSO-CUT-1         260        466   403.E-03
  OSSO-CUT-1         261        392   356.E-03
  OSSO-CUT-1         261        393   356.E-03
  OSSO-CUT-1         262         14   273.E-03
  OSSO-CUT-1         262        394   273.E-03
  OSSO-CUT-1         263        394   241.E-03
  OSSO-CUT-1         263        395   241.E-03
  OSSO-CUT-1         264         15   183.E-03
  OSSO-CUT-1         264        395   183.E-03
  OSSO-CUT-1         265         15   203.E-03
  OSSO-CUT-1         265         16   203.E-03
  OSSO-CUT-1         266         29   108.E-03
  OSSO-CUT-1         266        396   108.E-03
  OSSO-CUT-1         267        396   132.E-03
  OSSO-CUT-1         267        397   132.E-03
  OSSO-CUT-1         268         30   157.E-03
  OSSO-CUT-1         268        224   157.E-03
  OSSO-CUT-1         269         30   157.E-03
  OSSO-CUT-1         269         31   157.E-03
  OSSO-CUT-1         270         21   116.E-03
  OSSO-CUT-1         270        540   116.E-03
  OSSO-CUT-1         271        540   109.E-03
  OSSO-CUT-1         271        556   109.E-03
  OSSO-CUT-1         272         88    99.E-03
  OSSO-CUT-1         272        388    99.E-03
  OSSO-CUT-1         273         87    91.E-03
  OSSO-CUT-1         273        388    91.E-03
  OSSO-CUT-1         274        241    77.E-03
  OSSO-CUT-1         274        390    77.E-03
  OSSO-CUT-1         275         85    79.E-03
  OSSO-CUT-1         275        390    79.E-03
  OSSO-CUT-1         276        389   111.E-03
  OSSO-CUT-1         276        400   111.E-03
  OSSO-CUT-1         277         84   166.E-03
  OSSO-CUT-1         277         89   166.E-03
  OSSO-CUT-1         278         89   193.E-03
  OSSO-CUT-1         278         90   193.E-03
  OSSO-CUT-1         279         82   233.E-03
  OSSO-CUT-1         279        401   233.E-03
  OSSO-CUT-1         280        401   246.E-03
  OSSO-CUT-1         280        402   246.E-03
  OSSO-CUT-1         281        521   150.E-03
  OSSO-CUT-1         281       1076   150.E-03
  OSSO-CUT-1         282         75   146.E-03
  OSSO-CUT-1         282        521   146.E-03
  OSSO-CUT-1         283         76   120.E-03
  OSSO-CUT-1         283         77   120.E-03
  OSSO-CUT-1         284        252   112.E-03
  OSSO-CUT-1         284        404   112.E-03
  OSSO-CUT-1         285        253   132.E-03
  OSSO-CUT-1         285        404   132.E-03
  OSSO-CUT-1         286         51   216.E-03
  OSSO-CUT-1         286        405   216.E-03
  OSSO-CUT-1         287         52   288.E-03
  OSSO-CUT-1         287        405   288.E-03
  OSSO-CUT-1         288         55   326.E-03
  OSSO-CUT-1         288        561   326.E-03
  OSSO-CUT-1         289         55   287.E-03
  OSSO-CUT-1         289        406   287.E-03
  OSSO-CUT-1         290         95   274.E-03
  OSSO-CUT-1         290        542   274.E-03
  OSSO-CUT-1         291         95   276.E-03
  OSSO-CUT-1         291        407   276.E-03
  OSSO-CUT-1         292        108   288.E-03
  OSSO-CUT-1         292        408   288.E-03
  OSSO-CUT-1         293        408   297.E-03
  OSSO-CUT-1         293        409   297.E-03
  OSSO-CUT-1         294         97   315.E-03
  OSSO-CUT-1         294        410   315.E-03
  OSSO-CUT-1         295        302   324.E-03
  OSSO-CUT-1         295        548   324.E-03
  OSSO-CUT-1         296        302   323.E-03
  OSSO-CUT-1         296        411   323.E-03
  OSSO-CUT-1         297        308   312.E-03
  OSSO-CUT-1         297        541   312.E-03
  OSSO-CUT-1         298         99   300.E-03
  OSSO-CUT-1         298        541   300.E-03
  OSSO-CUT-1         299        101   271.E-03
  OSSO-CUT-1         299        412   271.E-03
  OSSO-CUT-1         300        412   316.E-03
  OSSO-CUT-1         300        462   316.E-03
  OSSO-CUT-1         301        413   280.E-03
  OSSO-CUT-1         301        414   280.E-03
  OSSO-CUT-1         302        414   267.E-03
  OSSO-CUT-1         302        463   267.E-03
  OSSO-CUT-1         303        304   426.E-03
  OSSO-CUT-1         303        470   426.E-03
  OSSO-CUT-1         304        121   273.E-03
  OSSO-CUT-1         304        122   273.E-03
  OSSO-CUT-1         305        122   232.E-03
  OSSO-CUT-1         305        415   232.E-03
  OSSO-CUT-1         306        113   186.E-03
  OSSO-CUT-1         306        562   186.E-03
  OSSO-CUT-1         307        113   141.E-03
  OSSO-CUT-1         307        416   141.E-03
  OSSO-CUT-1         308        416   102.E-03
  OSSO-CUT-1         308        417   102.E-03
  OSSO-CUT-1         309        123    65.E-03
  OSSO-CUT-1         309        301    65.E-03
  OSSO-CUT-1         310        115   359.E-03
  OSSO-CUT-1         310        117   359.E-03
  OSSO-CUT-1         311        112   833.E-03
  OSSO-CUT-1         311        420   833.E-03
  OSSO-CUT-1         312         63   625.E-03
  OSSO-CUT-1         312        421   625.E-03
  OSSO-CUT-1         313        421   802.E-03
  OSSO-CUT-1         313        422   802.E-03
  OSSO-CUT-1         314         65   839.E-03
  OSSO-CUT-1         314         66   839.E-03
  OSSO-CUT-1         315         66   478.E-03
  OSSO-CUT-1         315        255   478.E-03
  OSSO-CUT-1         316        423   522.E-03
  OSSO-CUT-1         316        494   522.E-03
  OSSO-CUT-1         317        125   576.E-03
  OSSO-CUT-1         317        424   576.E-03
  OSSO-CUT-1         318         35   441.E-03
  OSSO-CUT-1         318        425   441.E-03
  OSSO-CUT-1         319        425   362.E-03
  OSSO-CUT-1         319        426   362.E-03
  OSSO-CUT-1         320        128   222.E-03
  OSSO-CUT-1         320        427   222.E-03
  OSSO-CUT-1         321         33    96.E-03
  OSSO-CUT-1         321        428    96.E-03
  OSSO-CUT-1         322         32    30.E-03
  OSSO-CUT-1         322        429    30.E-03
  OSSO-CUT-1         323        429    93.E-03
  OSSO-CUT-1         323        430    93.E-03
  OSSO-CUT-1         324        155   221.E-03
  OSSO-CUT-1         324        431   221.E-03
  OSSO-CUT-1         325        432   349.E-03
  OSSO-CUT-1         325        611   349.E-03
  OSSO-CUT-1         326        165   480.E-03
  OSSO-CUT-1         326        166   480.E-03
  OSSO-CUT-1         327        166   554.E-03
  OSSO-CUT-1         327        434   554.E-03
  OSSO-CUT-1         328        169   789.E-03
  OSSO-CUT-1         328        170   789.E-03
  OSSO-CUT-1         329        170   526.E-03
  OSSO-CUT-1         329        435   526.E-03
  OSSO-CUT-1         330        167   314.E-03
  OSSO-CUT-1         330        436   314.E-03
  OSSO-CUT-1         331        164   260.E-03
  OSSO-CUT-1         331        436   260.E-03
  OSSO-CUT-1         332        437   244.E-03
  OSSO-CUT-1         332        486   244.E-03
  OSSO-CUT-1         333        160   309.E-03
  OSSO-CUT-1         333        438   309.E-03
  OSSO-CUT-1         334        134   404.E-03
  OSSO-CUT-1         334        439   404.E-03
  OSSO-CUT-1         335        135   522.E-03
  OSSO-CUT-1         335        136   522.E-03
  OSSO-CUT-1         336        136   592.E-03
  OSSO-CUT-1         336        440   592.E-03
  OSSO-CUT-1         337        171   782.E-03
  OSSO-CUT-1         337        481   782.E-03
  OSSO-CUT-1         338        181         1.
  OSSO-CUT-1         338        441         1.
  OSSO-CUT-1         339        441         2.
  OSSO-CUT-1         339        528         2.
  OSSO-CUT-1         340        442         1.
  OSSO-CUT-1         340        528         1.
  OSSO-CUT-1         341        183   983.E-03
  OSSO-CUT-1         341        529   983.E-03
  OSSO-CUT-1         342        184   826.E-03
  OSSO-CUT-1         342        443   826.E-03
  OSSO-CUT-1         343        443   758.E-03
  OSSO-CUT-1         343        444   758.E-03
  OSSO-CUT-1         344        185   630.E-03
  OSSO-CUT-1         344        445   630.E-03
  OSSO-CUT-1         345        364   510.E-03
  OSSO-CUT-1         345        534   510.E-03
  OSSO-CUT-1         346        187   451.E-03
  OSSO-CUT-1         346        364   451.E-03
  OSSO-CUT-1         347        190   338.E-03
  OSSO-CUT-1         347        446   338.E-03
  OSSO-CUT-1         348        191   230.E-03
  OSSO-CUT-1         348        345   230.E-03
  OSSO-CUT-1         349        191   178.E-03
  OSSO-CUT-1         349        447   178.E-03
  OSSO-CUT-1         350        193    79.E-03
  OSSO-CUT-1         350        448    79.E-03
  OSSO-CUT-1         351         45    15.E-03
  OSSO-CUT-1         351        449    15.E-03
  OSSO-CUT-1         352         46   101.E-03
  OSSO-CUT-1         352         47   101.E-03
  OSSO-CUT-1         353         47   140.E-03
  OSSO-CUT-1         353        450   140.E-03
  OSSO-CUT-1         354         94   202.E-03
  OSSO-CUT-1         354        517   202.E-03
  OSSO-CUT-1         355        247   236.E-03
  OSSO-CUT-1         355        451   236.E-03
  OSSO-CUT-1         356         79   243.E-03
  OSSO-CUT-1         356        452   243.E-03
  OSSO-CUT-1         357         73   239.E-03
  OSSO-CUT-1         357        194   239.E-03
  OSSO-CUT-1         358         74   258.E-03
  OSSO-CUT-1         358        453   258.E-03
  OSSO-CUT-1         359         72   249.E-03
  OSSO-CUT-1         359        454   249.E-03
  OSSO-CUT-1         360        455   281.E-03
  OSSO-CUT-1         360        522   281.E-03
  OSSO-CUT-1         361        197   330.E-03
  OSSO-CUT-1         361        245   330.E-03
  OSSO-CUT-1         362        197   358.E-03
  OSSO-CUT-1         362        204   358.E-03
  OSSO-CUT-1         363        206   419.E-03
  OSSO-CUT-1         363        208   419.E-03
  OSSO-CUT-1         364        207   479.E-03
  OSSO-CUT-1         364        678   479.E-03
  OSSO-CUT-1         365        456   495.E-03
  OSSO-CUT-1         365        678   495.E-03
  OSSO-CUT-1         366          6   488.E-03
  OSSO-CUT-1         366        511   488.E-03
  OSSO-CUT-1         367          6   498.E-03
  OSSO-CUT-1         367        457   498.E-03
  OSSO-CUT-1         368        209   603.E-03
  OSSO-CUT-1         368        458   603.E-03
  OSSO-CUT-1         369        211         2.
  OSSO-CUT-1         369        391         2.
  OSSO-CUT-1         370        212         1.
  OSSO-CUT-1         370        214         1.
  OSSO-CUT-1         371         11   765.E-03
  OSSO-CUT-1         371        491   765.E-03
  OSSO-CUT-1         372         12   605.E-03
  OSSO-CUT-1         372        459   605.E-03
  OSSO-CUT-1         373         13   588.E-03
  OSSO-CUT-1         373        460   588.E-03
  OSSO-CUT-1         374         65   712.E-03
  OSSO-CUT-1         374         66   712.E-03
  OSSO-CUT-1         374        256   712.E-03
  OSSO-CUT-1         374        461   712.E-03
  OSSO-CUT-1         375         29   108.E-03
  OSSO-CUT-1         375        396   108.E-03
  OSSO-CUT-1         375        397   108.E-03
  OSSO-CUT-1         375        398   108.E-03
  OSSO-CUT-1         376        100   262.E-03
  OSSO-CUT-1         376        101   262.E-03
  OSSO-CUT-1         376        412   262.E-03
  OSSO-CUT-1         376        462   262.E-03
  OSSO-CUT-1         377        103   286.E-03
  OSSO-CUT-1         377        413   286.E-03
  OSSO-CUT-1         377        414   286.E-03
  OSSO-CUT-1         377        463   286.E-03
  OSSO-CUT-1         378         30   130.E-03
  OSSO-CUT-1         378         31   130.E-03
  OSSO-CUT-1         378        224   130.E-03
  OSSO-CUT-1         378        476   130.E-03
  OSSO-CUT-1         379         64   618.E-03
  OSSO-CUT-1         379        257   618.E-03
  OSSO-CUT-1         379        422   618.E-03
  OSSO-CUT-1         379        465   618.E-03
  OSSO-CUT-1         380         19   397.E-03
  OSSO-CUT-1         380        392   397.E-03
  OSSO-CUT-1         380        466   397.E-03
  OSSO-CUT-1         380        568   397.E-03
  OSSO-CUT-1         381         14   288.E-03
  OSSO-CUT-1         381        393   288.E-03
  OSSO-CUT-1         381        467   288.E-03
  OSSO-CUT-1         381        473   288.E-03
  OSSO-CUT-1         382         14   242.E-03
  OSSO-CUT-1         382         18   242.E-03
  OSSO-CUT-1         382        394   242.E-03
  OSSO-CUT-1         382        473   242.E-03
  OSSO-CUT-1         383         62   743.E-03
  OSSO-CUT-1         383        421   743.E-03
  OSSO-CUT-1         383        422   743.E-03
  OSSO-CUT-1         383        465   743.E-03
  OSSO-CUT-1         384         62   735.E-03
  OSSO-CUT-1         384         63   735.E-03
  OSSO-CUT-1         384        421   735.E-03
  OSSO-CUT-1         385        102   364.E-03
  OSSO-CUT-1         385        109   364.E-03
  OSSO-CUT-1         385        304   364.E-03
  OSSO-CUT-1         385        574   364.E-03
  OSSO-CUT-1         386        109   427.E-03
  OSSO-CUT-1         386        304   427.E-03
  OSSO-CUT-1         386        470   427.E-03
  OSSO-CUT-1         386        596   427.E-03
  OSSO-CUT-1         387         16   192.E-03
  OSSO-CUT-1         387        468   192.E-03
  OSSO-CUT-1         387        472   192.E-03
  OSSO-CUT-1         387        600   192.E-03
  OSSO-CUT-1         388         76   127.E-03
  OSSO-CUT-1         388         77   127.E-03
  OSSO-CUT-1         388        474   127.E-03
  OSSO-CUT-1         388        537   127.E-03
  OSSO-CUT-1         389         84   162.E-03
  OSSO-CUT-1         389        243   162.E-03
  OSSO-CUT-1         389        400   162.E-03
  OSSO-CUT-1         389        695   162.E-03
  OSSO-CUT-1         390        100   287.E-03
  OSSO-CUT-1         390        103   287.E-03
  OSSO-CUT-1         390        413   287.E-03
  OSSO-CUT-1         390        462   287.E-03
  OSSO-CUT-1         391         50   162.E-03
  OSSO-CUT-1         391         51   162.E-03
  OSSO-CUT-1         391        253   162.E-03
  OSSO-CUT-1         391        475   162.E-03
  OSSO-CUT-1         392        224   112.E-03
  OSSO-CUT-1         392        397   112.E-03
  OSSO-CUT-1         392        398   112.E-03
  OSSO-CUT-1         392        476   112.E-03
  OSSO-CUT-1         393        123   184.E-03
  OSSO-CUT-1         393        300   184.E-03
  OSSO-CUT-1         393        301   184.E-03
  OSSO-CUT-1         393        477   184.E-03
  OSSO-CUT-1         394        300   176.E-03
  OSSO-CUT-1         394        301   176.E-03
  OSSO-CUT-1         394        417   176.E-03
  OSSO-CUT-1         394        581   176.E-03
  OSSO-CUT-1         395        114   219.E-03
  OSSO-CUT-1         395        123   219.E-03
  OSSO-CUT-1         395        418   219.E-03
  OSSO-CUT-1         395        477   219.E-03
  OSSO-CUT-1         396        135   481.E-03
  OSSO-CUT-1         396        439   481.E-03
  OSSO-CUT-1         396        479   481.E-03
  OSSO-CUT-1         396        480   481.E-03
  OSSO-CUT-1         397        171   718.E-03
  OSSO-CUT-1         397        172   718.E-03
  OSSO-CUT-1         397        440   718.E-03
  OSSO-CUT-1         397        482   718.E-03
  OSSO-CUT-1         398        181         1.
  OSSO-CUT-1         398        182         1.
  OSSO-CUT-1         398        481         1.
  OSSO-CUT-1         398        483         1.
  OSSO-CUT-1         399        133   430.E-03
  OSSO-CUT-1         399        134   430.E-03
  OSSO-CUT-1         399        439   430.E-03
  OSSO-CUT-1         399        480   430.E-03
  OSSO-CUT-1         400        135   552.E-03
  OSSO-CUT-1         400        136   552.E-03
  OSSO-CUT-1         400        137   552.E-03
  OSSO-CUT-1         400        479   552.E-03
  OSSO-CUT-1         400        484   552.E-03
  OSSO-CUT-1         401        136   628.E-03
  OSSO-CUT-1         401        137   628.E-03
  OSSO-CUT-1         401        440   628.E-03
  OSSO-CUT-1         401        482   628.E-03
  OSSO-CUT-1         402        171   834.E-03
  OSSO-CUT-1         402        172   834.E-03
  OSSO-CUT-1         402        481   834.E-03
  OSSO-CUT-1         402        483   834.E-03
  OSSO-CUT-1         403        167   344.E-03
  OSSO-CUT-1         403        168   344.E-03
  OSSO-CUT-1         403        436   344.E-03
  OSSO-CUT-1         403        485   344.E-03
  OSSO-CUT-1         404        164   291.E-03
  OSSO-CUT-1         404        168   291.E-03
  OSSO-CUT-1         404        436   291.E-03
  OSSO-CUT-1         404        755   291.E-03
  OSSO-CUT-1         405        167   442.E-03
  OSSO-CUT-1         405        435   442.E-03
  OSSO-CUT-1         405        485   442.E-03
  OSSO-CUT-1         405        487   442.E-03
  OSSO-CUT-1         406        169   626.E-03
  OSSO-CUT-1         406        170   626.E-03
  OSSO-CUT-1         406        435   626.E-03
  OSSO-CUT-1         406        487   626.E-03
  OSSO-CUT-1         407        133   386.E-03
  OSSO-CUT-1         407        134   386.E-03
  OSSO-CUT-1         407        438   386.E-03
  OSSO-CUT-1         407        490   386.E-03
  OSSO-CUT-1         408        160   310.E-03
  OSSO-CUT-1         408        437   310.E-03
  OSSO-CUT-1         408        488   310.E-03
  OSSO-CUT-1         408        489   310.E-03
  OSSO-CUT-1         409        159   275.E-03
  OSSO-CUT-1         409        164   275.E-03
  OSSO-CUT-1         409        486   275.E-03
  OSSO-CUT-1         409        755   275.E-03
  OSSO-CUT-1         410        159   284.E-03
  OSSO-CUT-1         410        437   284.E-03
  OSSO-CUT-1         410        486   284.E-03
  OSSO-CUT-1         410        489   284.E-03
  OSSO-CUT-1         411        160   345.E-03
  OSSO-CUT-1         411        438   345.E-03
  OSSO-CUT-1         411        488   345.E-03
  OSSO-CUT-1         411        490   345.E-03
  OSSO-CUT-1         412        198   398.E-03
  OSSO-CUT-1         412        207   398.E-03
  OSSO-CUT-1         412        208   398.E-03
  OSSO-CUT-1         412        239   398.E-03
  OSSO-CUT-1         413         10   805.E-03
  OSSO-CUT-1         413        212   805.E-03
  OSSO-CUT-1         413        214   805.E-03
  OSSO-CUT-1         413        580   805.E-03
  OSSO-CUT-1         414         13   494.E-03
  OSSO-CUT-1         414         19   494.E-03
  OSSO-CUT-1         414        460   494.E-03
  OSSO-CUT-1         414        466   494.E-03
  OSSO-CUT-1         415         11   575.E-03
  OSSO-CUT-1         415         12   575.E-03
  OSSO-CUT-1         415        492   575.E-03
  OSSO-CUT-1         415        593   575.E-03
  OSSO-CUT-1         416         10   722.E-03
  OSSO-CUT-1         416        213   722.E-03
  OSSO-CUT-1         416        214   722.E-03
  OSSO-CUT-1         416        491   722.E-03
  OSSO-CUT-1         417         11   641.E-03
  OSSO-CUT-1         417        213   641.E-03
  OSSO-CUT-1         417        491   641.E-03
  OSSO-CUT-1         417        492   641.E-03
  OSSO-CUT-1         418          9         1.
  OSSO-CUT-1         418        209         1.
  OSSO-CUT-1         418        210         1.
  OSSO-CUT-1         418        493         1.
  OSSO-CUT-1         419         66   647.E-03
  OSSO-CUT-1         419        124   647.E-03
  OSSO-CUT-1         419        255   647.E-03
  OSSO-CUT-1         419        461   647.E-03
  OSSO-CUT-1         420          8   728.E-03
  OSSO-CUT-1         420        209   728.E-03
  OSSO-CUT-1         420        458   728.E-03
  OSSO-CUT-1         420        493   728.E-03
  OSSO-CUT-1         421        126   504.E-03
  OSSO-CUT-1         421        423   504.E-03
  OSSO-CUT-1         421        424   504.E-03
  OSSO-CUT-1         421        498   504.E-03
  OSSO-CUT-1         422        124   566.E-03
  OSSO-CUT-1         422        255   566.E-03
  OSSO-CUT-1         422        494   566.E-03
  OSSO-CUT-1         422        499   566.E-03
  OSSO-CUT-1         423        125   474.E-03
  OSSO-CUT-1         423        126   474.E-03
  OSSO-CUT-1         423        424   474.E-03
  OSSO-CUT-1         423        495   474.E-03
  OSSO-CUT-1         424         35   445.E-03
  OSSO-CUT-1         424        125   445.E-03
  OSSO-CUT-1         424        127   445.E-03
  OSSO-CUT-1         424        495   445.E-03
  OSSO-CUT-1         425         35   402.E-03
  OSSO-CUT-1         425        127   402.E-03
  OSSO-CUT-1         425        425   402.E-03
  OSSO-CUT-1         425        496   402.E-03
  OSSO-CUT-1         426          8   595.E-03
  OSSO-CUT-1         426        457   595.E-03
  OSSO-CUT-1         426        458   595.E-03
  OSSO-CUT-1         426        497   595.E-03
  OSSO-CUT-1         427        423   533.E-03
  OSSO-CUT-1         427        494   533.E-03
  OSSO-CUT-1         427        498   533.E-03
  OSSO-CUT-1         427        499   533.E-03
  OSSO-CUT-1         428         34   349.E-03
  OSSO-CUT-1         428        425   349.E-03
  OSSO-CUT-1         428        426   349.E-03
  OSSO-CUT-1         428        496   349.E-03
  OSSO-CUT-1         429         34   294.E-03
  OSSO-CUT-1         429        128   294.E-03
  OSSO-CUT-1         429        426   294.E-03
  OSSO-CUT-1         429        500   294.E-03
  OSSO-CUT-1         430         33   191.E-03
  OSSO-CUT-1         430        427   191.E-03
  OSSO-CUT-1         430        502   191.E-03
  OSSO-CUT-1         430       1042   191.E-03
  OSSO-CUT-1         431         32   113.E-03
  OSSO-CUT-1         431        428   113.E-03
  OSSO-CUT-1         431        504   113.E-03
  OSSO-CUT-1         431       1031   113.E-03
  OSSO-CUT-1         432        129   109.E-03
  OSSO-CUT-1         432        429   109.E-03
  OSSO-CUT-1         432        430   109.E-03
  OSSO-CUT-1         432       1033   109.E-03
  OSSO-CUT-1         433        130   194.E-03
  OSSO-CUT-1         433        155   194.E-03
  OSSO-CUT-1         433        156   194.E-03
  OSSO-CUT-1         433        431   194.E-03
  OSSO-CUT-1         433        789   194.E-03
  OSSO-CUT-1         434        161   298.E-03
  OSSO-CUT-1         434        432   298.E-03
  OSSO-CUT-1         434        507   298.E-03
  OSSO-CUT-1         434        611   298.E-03
  OSSO-CUT-1         435        169   537.E-03
  OSSO-CUT-1         435        433   537.E-03
  OSSO-CUT-1         435        434   537.E-03
  OSSO-CUT-1         435        487   537.E-03
  OSSO-CUT-1         436        166   460.E-03
  OSSO-CUT-1         436        433   460.E-03
  OSSO-CUT-1         436        434   460.E-03
  OSSO-CUT-1         436        508   460.E-03
  OSSO-CUT-1         437        165   406.E-03
  OSSO-CUT-1         437        166   406.E-03
  OSSO-CUT-1         437        508   406.E-03
  OSSO-CUT-1         437        509   406.E-03
  OSSO-CUT-1         438          6   525.E-03
  OSSO-CUT-1         438          7   525.E-03
  OSSO-CUT-1         438        457   525.E-03
  OSSO-CUT-1         438        497   525.E-03
  OSSO-CUT-1         439          6   484.E-03
  OSSO-CUT-1         439          7   484.E-03
  OSSO-CUT-1         439        510   484.E-03
  OSSO-CUT-1         439        511   484.E-03
  OSSO-CUT-1         440          5   458.E-03
  OSSO-CUT-1         440        456   458.E-03
  OSSO-CUT-1         440        510   458.E-03
  OSSO-CUT-1         440        511   458.E-03
  OSSO-CUT-1         441         78   202.E-03
  OSSO-CUT-1         441         79   202.E-03
  OSSO-CUT-1         441        452   202.E-03
  OSSO-CUT-1         441        683   202.E-03
  OSSO-CUT-1         442         46    84.E-03
  OSSO-CUT-1         442         47    84.E-03
  OSSO-CUT-1         442        513    84.E-03
  OSSO-CUT-1         442        515    84.E-03
  OSSO-CUT-1         443         78   197.E-03
  OSSO-CUT-1         443        247   197.E-03
  OSSO-CUT-1         443        452   197.E-03
  OSSO-CUT-1         443        514   197.E-03
  OSSO-CUT-1         444         47   109.E-03
  OSSO-CUT-1         444         48   109.E-03
  OSSO-CUT-1         444        450   109.E-03
  OSSO-CUT-1         444        515   109.E-03
  OSSO-CUT-1         445         93   189.E-03
  OSSO-CUT-1         445        247   189.E-03
  OSSO-CUT-1         445        451   189.E-03
  OSSO-CUT-1         445        514   189.E-03
  OSSO-CUT-1         446         48   135.E-03
  OSSO-CUT-1         446        450   135.E-03
  OSSO-CUT-1         446        517   135.E-03
  OSSO-CUT-1         446        518   135.E-03
  OSSO-CUT-1         447         93   175.E-03
  OSSO-CUT-1         447         94   175.E-03
  OSSO-CUT-1         447        451   175.E-03
  OSSO-CUT-1         447        516   175.E-03
  OSSO-CUT-1         448         94   157.E-03
  OSSO-CUT-1         448        516   157.E-03
  OSSO-CUT-1         448        517   157.E-03
  OSSO-CUT-1         448        518   157.E-03
  OSSO-CUT-1         449        195   221.E-03
  OSSO-CUT-1         449        402   221.E-03
  OSSO-CUT-1         449        524   221.E-03
  OSSO-CUT-1         450         79   202.E-03
  OSSO-CUT-1         450        194   202.E-03
  OSSO-CUT-1         450        519   202.E-03
  OSSO-CUT-1         450        683   202.E-03
  OSSO-CUT-1         451         73   205.E-03
  OSSO-CUT-1         451         74   205.E-03
  OSSO-CUT-1         451        403   205.E-03
  OSSO-CUT-1         451        520   205.E-03
  OSSO-CUT-1         452         74   218.E-03
  OSSO-CUT-1         452        453   218.E-03
  OSSO-CUT-1         452        520   218.E-03
  OSSO-CUT-1         452        612   218.E-03
  OSSO-CUT-1         453        191   254.E-03
  OSSO-CUT-1         453        192   254.E-03
  OSSO-CUT-1         453        345   254.E-03
  OSSO-CUT-1         453        679   254.E-03
  OSSO-CUT-1         454        196   272.E-03
  OSSO-CUT-1         454        455   272.E-03
  OSSO-CUT-1         454        522   272.E-03
  OSSO-CUT-1         454        523   272.E-03
  OSSO-CUT-1         455        203   293.E-03
  OSSO-CUT-1         455        245   293.E-03
  OSSO-CUT-1         455        455   293.E-03
  OSSO-CUT-1         455        523   293.E-03
  OSSO-CUT-1         456        197   313.E-03
  OSSO-CUT-1         456        203   313.E-03
  OSSO-CUT-1         456        245   313.E-03
  OSSO-CUT-1         456        527   313.E-03
  OSSO-CUT-1         457        196   250.E-03
  OSSO-CUT-1         457        454   250.E-03
  OSSO-CUT-1         457        522   250.E-03
  OSSO-CUT-1         457        524   250.E-03
  OSSO-CUT-1         457        616   250.E-03
  OSSO-CUT-1         458        197   333.E-03
  OSSO-CUT-1         458        204   333.E-03
  OSSO-CUT-1         458        205   333.E-03
  OSSO-CUT-1         458        527   333.E-03
  OSSO-CUT-1         459        188   300.E-03
  OSSO-CUT-1         459        190   300.E-03
  OSSO-CUT-1         459        192   300.E-03
  OSSO-CUT-1         459        345   300.E-03
  OSSO-CUT-1         460        204   353.E-03
  OSSO-CUT-1         460        205   353.E-03
  OSSO-CUT-1         460        206   353.E-03
  OSSO-CUT-1         460        526   353.E-03
  OSSO-CUT-1         461        182         1.
  OSSO-CUT-1         461        442         1.
  OSSO-CUT-1         461        528         1.
  OSSO-CUT-1         461        577         1.
  OSSO-CUT-1         462        183   931.E-03
  OSSO-CUT-1         462        387   931.E-03
  OSSO-CUT-1         462        529   931.E-03
  OSSO-CUT-1         462        530   931.E-03
  OSSO-CUT-1         463        183   854.E-03
  OSSO-CUT-1         463        184   854.E-03
  OSSO-CUT-1         463        381   854.E-03
  OSSO-CUT-1         463        530   854.E-03
  OSSO-CUT-1         464        184   787.E-03
  OSSO-CUT-1         464        381   787.E-03
  OSSO-CUT-1         464        443   787.E-03
  OSSO-CUT-1         464        531   787.E-03
  OSSO-CUT-1         465        188   348.E-03
  OSSO-CUT-1         465        190   348.E-03
  OSSO-CUT-1         465        446   348.E-03
  OSSO-CUT-1         465        525   348.E-03
  OSSO-CUT-1         466        376   724.E-03
  OSSO-CUT-1         466        443   724.E-03
  OSSO-CUT-1         466        444   724.E-03
  OSSO-CUT-1         466        531   724.E-03
  OSSO-CUT-1         467        185   665.E-03
  OSSO-CUT-1         467        376   665.E-03
  OSSO-CUT-1         467        444   665.E-03
  OSSO-CUT-1         467        533   665.E-03
  OSSO-CUT-1         468        186   398.E-03
  OSSO-CUT-1         468        187   398.E-03
  OSSO-CUT-1         468        446   398.E-03
  OSSO-CUT-1         468        525   398.E-03
  OSSO-CUT-1         469        185   609.E-03
  OSSO-CUT-1         469        370   609.E-03
  OSSO-CUT-1         469        445   609.E-03
  OSSO-CUT-1         469        533   609.E-03
  OSSO-CUT-1         470        186   449.E-03
  OSSO-CUT-1         470        187   449.E-03
  OSSO-CUT-1         470        364   449.E-03
  OSSO-CUT-1         470        532   449.E-03
  OSSO-CUT-1         471        370   554.E-03
  OSSO-CUT-1         471        445   554.E-03
  OSSO-CUT-1         471        534   554.E-03
  OSSO-CUT-1         471        535   554.E-03
  OSSO-CUT-1         472        364   500.E-03
  OSSO-CUT-1         472        532   500.E-03
  OSSO-CUT-1         472        534   500.E-03
  OSSO-CUT-1         472        535   500.E-03
  OSSO-CUT-1         473         52   281.E-03
  OSSO-CUT-1         473        405   281.E-03
  OSSO-CUT-1         473        536   281.E-03
  OSSO-CUT-1         473        681   281.E-03
  OSSO-CUT-1         474         75   160.E-03
  OSSO-CUT-1         474        403   160.E-03
  OSSO-CUT-1         474        521   160.E-03
  OSSO-CUT-1         474        626   160.E-03
  OSSO-CUT-1         475        253   128.E-03
  OSSO-CUT-1         475        404   128.E-03
  OSSO-CUT-1         475        475   128.E-03
  OSSO-CUT-1         475        538   128.E-03
  OSSO-CUT-1         476         77   114.E-03
  OSSO-CUT-1         476        252   114.E-03
  OSSO-CUT-1         476        474   114.E-03
  OSSO-CUT-1         476        539   114.E-03
  OSSO-CUT-1         477        403   166.E-03
  OSSO-CUT-1         477        520   166.E-03
  OSSO-CUT-1         477        521   166.E-03
  OSSO-CUT-1         477       1076   166.E-03
  OSSO-CUT-1         478         20   110.E-03
  OSSO-CUT-1         478         21   110.E-03
  OSSO-CUT-1         478         31   110.E-03
  OSSO-CUT-1         478        476   110.E-03
  OSSO-CUT-1         479         99   275.E-03
  OSSO-CUT-1         479        100   275.E-03
  OSSO-CUT-1         479        101   275.E-03
  OSSO-CUT-1         479        545   275.E-03
  OSSO-CUT-1         480         57   294.E-03
  OSSO-CUT-1         480         95   294.E-03
  OSSO-CUT-1         480        281   294.E-03
  OSSO-CUT-1         480        542   294.E-03
  OSSO-CUT-1         481        107   292.E-03
  OSSO-CUT-1         481        108   292.E-03
  OSSO-CUT-1         481        407   292.E-03
  OSSO-CUT-1         481        543   292.E-03
  OSSO-CUT-1         482        281   302.E-03
  OSSO-CUT-1         482        406   302.E-03
  OSSO-CUT-1         482        542   302.E-03
  OSSO-CUT-1         482        544   302.E-03
  OSSO-CUT-1         483        307   306.E-03
  OSSO-CUT-1         483        308   306.E-03
  OSSO-CUT-1         483        541   306.E-03
  OSSO-CUT-1         483        550   306.E-03
  OSSO-CUT-1         484         97   311.E-03
  OSSO-CUT-1         484        296   311.E-03
  OSSO-CUT-1         484        409   311.E-03
  OSSO-CUT-1         484        547   311.E-03
  OSSO-CUT-1         485         98   321.E-03
  OSSO-CUT-1         485        302   321.E-03
  OSSO-CUT-1         485        411   321.E-03
  OSSO-CUT-1         485        551   321.E-03
  OSSO-CUT-1         486         97   317.E-03
  OSSO-CUT-1         486        296   317.E-03
  OSSO-CUT-1         486        410   317.E-03
  OSSO-CUT-1         486        549   317.E-03
  OSSO-CUT-1         487         98   324.E-03
  OSSO-CUT-1         487        302   324.E-03
  OSSO-CUT-1         487        303   324.E-03
  OSSO-CUT-1         487        548   324.E-03
  OSSO-CUT-1         488         96   304.E-03
  OSSO-CUT-1         488        408   304.E-03
  OSSO-CUT-1         488        409   304.E-03
  OSSO-CUT-1         488        547   304.E-03
  OSSO-CUT-1         489        303   322.E-03
  OSSO-CUT-1         489        410   322.E-03
  OSSO-CUT-1         489        548   322.E-03
  OSSO-CUT-1         489        549   322.E-03
  OSSO-CUT-1         490         96   297.E-03
  OSSO-CUT-1         490        107   297.E-03
  OSSO-CUT-1         490        108   297.E-03
  OSSO-CUT-1         490        408   297.E-03
  OSSO-CUT-1         491         99   294.E-03
  OSSO-CUT-1         491        541   294.E-03
  OSSO-CUT-1         491        545   294.E-03
  OSSO-CUT-1         491        550   294.E-03
  OSSO-CUT-1         492        307   315.E-03
  OSSO-CUT-1         492        308   315.E-03
  OSSO-CUT-1         492        411   315.E-03
  OSSO-CUT-1         492        551   315.E-03
  OSSO-CUT-1         493         88    81.E-03
  OSSO-CUT-1         493        231    81.E-03
  OSSO-CUT-1         493        388    81.E-03
  OSSO-CUT-1         493        553    81.E-03
  OSSO-CUT-1         494         87    74.E-03
  OSSO-CUT-1         494        241    74.E-03
  OSSO-CUT-1         494        242    74.E-03
  OSSO-CUT-1         494        554    74.E-03
  OSSO-CUT-1         495         85    91.E-03
  OSSO-CUT-1         495         86    91.E-03
  OSSO-CUT-1         495        390    91.E-03
  OSSO-CUT-1         495        559    91.E-03
  OSSO-CUT-1         496         81   228.E-03
  OSSO-CUT-1         496         82   228.E-03
  OSSO-CUT-1         496         90   228.E-03
  OSSO-CUT-1         496        555   228.E-03
  OSSO-CUT-1         497         20    95.E-03
  OSSO-CUT-1         497         21    95.E-03
  OSSO-CUT-1         497        225    95.E-03
  OSSO-CUT-1         497        540    95.E-03
  OSSO-CUT-1         498         88    84.E-03
  OSSO-CUT-1         498        399    84.E-03
  OSSO-CUT-1         498        553    84.E-03
  OSSO-CUT-1         498        556    84.E-03
  OSSO-CUT-1         499        225    88.E-03
  OSSO-CUT-1         499        399    88.E-03
  OSSO-CUT-1         499        540    88.E-03
  OSSO-CUT-1         499        556    88.E-03
  OSSO-CUT-1         500         85   111.E-03
  OSSO-CUT-1         500        389   111.E-03
  OSSO-CUT-1         500        558   111.E-03
  OSSO-CUT-1         500        559   111.E-03
  OSSO-CUT-1         501         87    76.E-03
  OSSO-CUT-1         501        231    76.E-03
  OSSO-CUT-1         501        242    76.E-03
  OSSO-CUT-1         501        388    76.E-03
  OSSO-CUT-1         502         55   327.E-03
  OSSO-CUT-1         502         56   327.E-03
  OSSO-CUT-1         502        561   327.E-03
  OSSO-CUT-1         502        795   327.E-03
  OSSO-CUT-1         503        113   213.E-03
  OSSO-CUT-1         503        118   213.E-03
  OSSO-CUT-1         503        562   213.E-03
  OSSO-CUT-1         503        581   213.E-03
  OSSO-CUT-1         504        113   172.E-03
  OSSO-CUT-1         504        416   172.E-03
  OSSO-CUT-1         504        417   172.E-03
  OSSO-CUT-1         504        581   172.E-03
  OSSO-CUT-1         505        118   245.E-03
  OSSO-CUT-1         505        119   245.E-03
  OSSO-CUT-1         505        415   245.E-03
  OSSO-CUT-1         505        562   245.E-03
  OSSO-CUT-1         506        114   284.E-03
  OSSO-CUT-1         506        477   284.E-03
  OSSO-CUT-1         506        478   284.E-03
  OSSO-CUT-1         507        281   318.E-03
  OSSO-CUT-1         507        287   318.E-03
  OSSO-CUT-1         507        544   318.E-03
  OSSO-CUT-1         507        663   318.E-03
  OSSO-CUT-1         508        380   805.E-03
  OSSO-CUT-1         508        381   805.E-03
  OSSO-CUT-1         508        530   805.E-03
  OSSO-CUT-1         508        652   805.E-03
  OSSO-CUT-1         509         34   318.E-03
  OSSO-CUT-1         509        328   318.E-03
  OSSO-CUT-1         509        500   318.E-03
  OSSO-CUT-1         509        717   318.E-03
  OSSO-CUT-1         510         48   112.E-03
  OSSO-CUT-1         510        285   112.E-03
  OSSO-CUT-1         510        515   112.E-03
  OSSO-CUT-1         510        661   112.E-03
  OSSO-CUT-1         511        102   325.E-03
  OSSO-CUT-1         511        103   325.E-03
  OSSO-CUT-1         511        463   325.E-03
  OSSO-CUT-1         511        567   325.E-03
  OSSO-CUT-1         511        685   325.E-03
  OSSO-CUT-1         512        392   340.E-03
  OSSO-CUT-1         512        393   340.E-03
  OSSO-CUT-1         512        467   340.E-03
  OSSO-CUT-1         512        568   340.E-03
  OSSO-CUT-1         513        467   277.E-03
  OSSO-CUT-1         513        473   277.E-03
  OSSO-CUT-1         513        569   277.E-03
  OSSO-CUT-1         513        601   277.E-03
  OSSO-CUT-1         514          5   391.E-03
  OSSO-CUT-1         514        199   391.E-03
  OSSO-CUT-1         514        570   391.E-03
  OSSO-CUT-1         514        571   391.E-03
  OSSO-CUT-1         515         58   303.E-03
  OSSO-CUT-1         515        107   303.E-03
  OSSO-CUT-1         515        543   303.E-03
  OSSO-CUT-1         515        732   303.E-03
  OSSO-CUT-1         516          8   548.E-03
  OSSO-CUT-1         516        222   548.E-03
  OSSO-CUT-1         516        223   548.E-03
  OSSO-CUT-1         516        497   548.E-03
  OSSO-CUT-1         517        109   394.E-03
  OSSO-CUT-1         517        471   394.E-03
  OSSO-CUT-1         517        574   394.E-03
  OSSO-CUT-1         517        711   394.E-03
  OSSO-CUT-1         518         28    77.E-03
  OSSO-CUT-1         518        575    77.E-03
  OSSO-CUT-1         518        576    77.E-03
  OSSO-CUT-1         518        634    77.E-03
  OSSO-CUT-1         519        173   915.E-03
  OSSO-CUT-1         519        386   915.E-03
  OSSO-CUT-1         519        387   915.E-03
  OSSO-CUT-1         519        577   915.E-03
  OSSO-CUT-1         519        578   915.E-03
  OSSO-CUT-1         520         10   429.E-03
  OSSO-CUT-1         520        218   429.E-03
  OSSO-CUT-1         520        219   429.E-03
  OSSO-CUT-1         520        580   429.E-03
  OSSO-CUT-1         521        118   273.E-03
  OSSO-CUT-1         521        119   273.E-03
  OSSO-CUT-1         521        563   273.E-03
  OSSO-CUT-1         521        673   273.E-03
  OSSO-CUT-1         522        256   586.E-03
  OSSO-CUT-1         522        461   586.E-03
  OSSO-CUT-1         522        583   586.E-03
  OSSO-CUT-1         522        584   586.E-03
  OSSO-CUT-1         523        175   695.E-03
  OSSO-CUT-1         523        375   695.E-03
  OSSO-CUT-1         523        376   695.E-03
  OSSO-CUT-1         523        531   695.E-03
  OSSO-CUT-1         524         62   633.E-03
  OSSO-CUT-1         524         63   633.E-03
  OSSO-CUT-1         524        420   633.E-03
  OSSO-CUT-1         524        586   633.E-03
  OSSO-CUT-1         524        656   633.E-03
  OSSO-CUT-1         525        124   582.E-03
  OSSO-CUT-1         525        461   582.E-03
  OSSO-CUT-1         525        583   582.E-03
  OSSO-CUT-1         525        587   582.E-03
  OSSO-CUT-1         526        257   506.E-03
  OSSO-CUT-1         526        469   506.E-03
  OSSO-CUT-1         526        588   506.E-03
  OSSO-CUT-1         526        712   506.E-03
  OSSO-CUT-1         527        312   117.E-03
  OSSO-CUT-1         527        313   117.E-03
  OSSO-CUT-1         527        513   117.E-03
  OSSO-CUT-1         527        590   117.E-03
  OSSO-CUT-1         528          4   444.E-03
  OSSO-CUT-1         528          7   444.E-03
  OSSO-CUT-1         528        510   444.E-03
  OSSO-CUT-1         528        697   444.E-03
  OSSO-CUT-1         529        127   390.E-03
  OSSO-CUT-1         529        318   390.E-03
  OSSO-CUT-1         529        496   390.E-03
  OSSO-CUT-1         529        591   390.E-03
  OSSO-CUT-1         530        213   511.E-03
  OSSO-CUT-1         530        215   511.E-03
  OSSO-CUT-1         530        492   511.E-03
  OSSO-CUT-1         530        636   511.E-03
  OSSO-CUT-1         531         50   201.E-03
  OSSO-CUT-1         531        248   201.E-03
  OSSO-CUT-1         531        536   201.E-03
  OSSO-CUT-1         531        595   201.E-03
  OSSO-CUT-1         532        120   434.E-03
  OSSO-CUT-1         532        470   434.E-03
  OSSO-CUT-1         532        582   434.E-03
  OSSO-CUT-1         532        596   434.E-03
  OSSO-CUT-1         533        256   536.E-03
  OSSO-CUT-1         533        464   536.E-03
  OSSO-CUT-1         533        584   536.E-03
  OSSO-CUT-1         533        597   536.E-03
  OSSO-CUT-1         534        162   378.E-03
  OSSO-CUT-1         534        382   378.E-03
  OSSO-CUT-1         534        433   378.E-03
  OSSO-CUT-1         534        508   378.E-03
  OSSO-CUT-1         534        669   378.E-03
  OSSO-CUT-1         535        243   157.E-03
  OSSO-CUT-1         535        244   157.E-03
  OSSO-CUT-1         535        558   157.E-03
  OSSO-CUT-1         535        879   157.E-03
  OSSO-CUT-1         536         18   228.E-03
  OSSO-CUT-1         536        468   228.E-03
  OSSO-CUT-1         536        473   228.E-03
  OSSO-CUT-1         536        601   228.E-03
  OSSO-CUT-1         537        217   178.E-03
  OSSO-CUT-1         537        472   178.E-03
  OSSO-CUT-1         537        600   178.E-03
  OSSO-CUT-1         537        691   178.E-03
  OSSO-CUT-1         538        154   746.E-03
  OSSO-CUT-1         538        172   746.E-03
  OSSO-CUT-1         538        482   746.E-03
  OSSO-CUT-1         538        603   746.E-03
  OSSO-CUT-1         539        479   490.E-03
  OSSO-CUT-1         539        480   490.E-03
  OSSO-CUT-1         539        604   490.E-03
  OSSO-CUT-1         540        133   423.E-03
  OSSO-CUT-1         540        358   423.E-03
  OSSO-CUT-1         540        385   423.E-03
  OSSO-CUT-1         540        490   423.E-03
  OSSO-CUT-1         541        168   351.E-03
  OSSO-CUT-1         541        382   351.E-03
  OSSO-CUT-1         541        485   351.E-03
  OSSO-CUT-1         541        606   351.E-03
  OSSO-CUT-1         542        132   347.E-03
  OSSO-CUT-1         542        384   347.E-03
  OSSO-CUT-1         542        488   347.E-03
  OSSO-CUT-1         542        489   347.E-03
  OSSO-CUT-1         543        124   555.E-03
  OSSO-CUT-1         543        499   555.E-03
  OSSO-CUT-1         543        587   555.E-03
  OSSO-CUT-1         543        607   555.E-03
  OSSO-CUT-1         544        538   118.E-03
  OSSO-CUT-1         544        539   118.E-03
  OSSO-CUT-1         544        608   118.E-03
  OSSO-CUT-1         544        632   118.E-03
  OSSO-CUT-1         545         10   505.E-03
  OSSO-CUT-1         545        213   505.E-03
  OSSO-CUT-1         545        218   505.E-03
  OSSO-CUT-1         545        636   505.E-03
  OSSO-CUT-1         546          1   515.E-03
  OSSO-CUT-1         546         13   515.E-03
  OSSO-CUT-1         546         19   515.E-03
  OSSO-CUT-1         546        459   515.E-03
  OSSO-CUT-1         547        106   317.E-03
  OSSO-CUT-1         547        296   317.E-03
  OSSO-CUT-1         547        547   317.E-03
  OSSO-CUT-1         547       1012   317.E-03
  OSSO-CUT-1         548        239   335.E-03
  OSSO-CUT-1         548        526   335.E-03
  OSSO-CUT-1         548        609   335.E-03
  OSSO-CUT-1         548        610   335.E-03
  OSSO-CUT-1         549          9   983.E-03
  OSSO-CUT-1         549        210   983.E-03
  OSSO-CUT-1         549        211   983.E-03
  OSSO-CUT-1         549        641   983.E-03
  OSSO-CUT-1         550        165   352.E-03
  OSSO-CUT-1         550        432   352.E-03
  OSSO-CUT-1         550        507   352.E-03
  OSSO-CUT-1         550        509   352.E-03
  OSSO-CUT-1         551         72   226.E-03
  OSSO-CUT-1         551        195   226.E-03
  OSSO-CUT-1         551        453   226.E-03
  OSSO-CUT-1         551        612   226.E-03
  OSSO-CUT-1         552        387         1.
  OSSO-CUT-1         552        442         1.
  OSSO-CUT-1         552        529         1.
  OSSO-CUT-1         552        577         1.
  OSSO-CUT-1         553        205   318.E-03
  OSSO-CUT-1         553        526   318.E-03
  OSSO-CUT-1         553        610   318.E-03
  OSSO-CUT-1         553        613   318.E-03
  OSSO-CUT-1         554        203   294.E-03
  OSSO-CUT-1         554        527   294.E-03
  OSSO-CUT-1         554        614   294.E-03
  OSSO-CUT-1         554        624   294.E-03
  OSSO-CUT-1         555         81   250.E-03
  OSSO-CUT-1         555        196   250.E-03
  OSSO-CUT-1         555        615   250.E-03
  OSSO-CUT-1         555        616   250.E-03
  OSSO-CUT-1         556        186   457.E-03
  OSSO-CUT-1         556        532   457.E-03
  OSSO-CUT-1         556        617   457.E-03
  OSSO-CUT-1         556        618   457.E-03
  OSSO-CUT-1         557        186   413.E-03
  OSSO-CUT-1         557        525   413.E-03
  OSSO-CUT-1         557        618   413.E-03
  OSSO-CUT-1         557        619   413.E-03
  OSSO-CUT-1         558         78   166.E-03
  OSSO-CUT-1         558        512   166.E-03
  OSSO-CUT-1         558        625   166.E-03
  OSSO-CUT-1         558        683   166.E-03
  OSSO-CUT-1         559        188   370.E-03
  OSSO-CUT-1         559        525   370.E-03
  OSSO-CUT-1         559        619   370.E-03
  OSSO-CUT-1         559        620   370.E-03
  OSSO-CUT-1         560         93   152.E-03
  OSSO-CUT-1         560        254   152.E-03
  OSSO-CUT-1         560        514   152.E-03
  OSSO-CUT-1         560        621   152.E-03
  OSSO-CUT-1         561        188   330.E-03
  OSSO-CUT-1         561        192   330.E-03
  OSSO-CUT-1         561        620   330.E-03
  OSSO-CUT-1         561        622   330.E-03
  OSSO-CUT-1         562         49   132.E-03
  OSSO-CUT-1         562         92   132.E-03
  OSSO-CUT-1         562        516   132.E-03
  OSSO-CUT-1         562        518   132.E-03
  OSSO-CUT-1         563        205   306.E-03
  OSSO-CUT-1         563        527   306.E-03
  OSSO-CUT-1         563        613   306.E-03
  OSSO-CUT-1         563        624   306.E-03
  OSSO-CUT-1         564         80   137.E-03
  OSSO-CUT-1         564        474   137.E-03
  OSSO-CUT-1         564        537   137.E-03
  OSSO-CUT-1         564        882   137.E-03
  OSSO-CUT-1         565         86    85.E-03
  OSSO-CUT-1         565        236    85.E-03
  OSSO-CUT-1         565        554    85.E-03
  OSSO-CUT-1         565        883    85.E-03
  OSSO-CUT-1         566         80   158.E-03
  OSSO-CUT-1         566        519   158.E-03
  OSSO-CUT-1         566        537   158.E-03
  OSSO-CUT-1         566        626   158.E-03
  OSSO-CUT-1         567        157   316.E-03
  OSSO-CUT-1         567        377   316.E-03
  OSSO-CUT-1         567        507   316.E-03
  OSSO-CUT-1         567        509   316.E-03
  OSSO-CUT-1         568         98   331.E-03
  OSSO-CUT-1         568        303   331.E-03
  OSSO-CUT-1         568        628   331.E-03
  OSSO-CUT-1         568        971   331.E-03
  OSSO-CUT-1         569        307   309.E-03
  OSSO-CUT-1         569        550   309.E-03
  OSSO-CUT-1         569        629   309.E-03
  OSSO-CUT-1         569        745   309.E-03
  OSSO-CUT-1         570         55   315.E-03
  OSSO-CUT-1         570         56   315.E-03
  OSSO-CUT-1         570        406   315.E-03
  OSSO-CUT-1         570        544   315.E-03
  OSSO-CUT-1         571         57   291.E-03
  OSSO-CUT-1         571         95   291.E-03
  OSSO-CUT-1         571        407   291.E-03
  OSSO-CUT-1         571        543   291.E-03
  OSSO-CUT-1         572        231    68.E-03
  OSSO-CUT-1         572        552    68.E-03
  OSSO-CUT-1         572        553    68.E-03
  OSSO-CUT-1         572        676    68.E-03
  OSSO-CUT-1         573        215   487.E-03
  OSSO-CUT-1         573        492   487.E-03
  OSSO-CUT-1         573        593   487.E-03
  OSSO-CUT-1         573       1082   487.E-03
  OSSO-CUT-1         574         36   441.E-03
  OSSO-CUT-1         574         67   441.E-03
  OSSO-CUT-1         574        126   441.E-03
  OSSO-CUT-1         574        495   441.E-03
  OSSO-CUT-1         574        646   441.E-03
  OSSO-CUT-1         575         91   127.E-03
  OSSO-CUT-1         575        475   127.E-03
  OSSO-CUT-1         575        538   127.E-03
  OSSO-CUT-1         575        632   127.E-03
  OSSO-CUT-1         576        176   595.E-03
  OSSO-CUT-1         576        369   595.E-03
  OSSO-CUT-1         576        370   595.E-03
  OSSO-CUT-1         576        533   595.E-03
  OSSO-CUT-1         577         20    79.E-03
  OSSO-CUT-1         577        225    79.E-03
  OSSO-CUT-1         577        575    79.E-03
  OSSO-CUT-1         577        634    79.E-03
  OSSO-CUT-1         578         52   335.E-03
  OSSO-CUT-1         578         53   335.E-03
  OSSO-CUT-1         578         54   335.E-03
  OSSO-CUT-1         578        681   335.E-03
  OSSO-CUT-1         579         17   328.E-03
  OSSO-CUT-1         579        221   328.E-03
  OSSO-CUT-1         579        594   328.E-03
  OSSO-CUT-1         579        630   328.E-03
  OSSO-CUT-1         580        218   283.E-03
  OSSO-CUT-1         580        219   283.E-03
  OSSO-CUT-1         580        713   283.E-03
  OSSO-CUT-1         580        714   283.E-03
  OSSO-CUT-1         581        177   471.E-03
  OSSO-CUT-1         581        363   471.E-03
  OSSO-CUT-1         581        617   471.E-03
  OSSO-CUT-1         581        618   471.E-03
  OSSO-CUT-1         582        138   746.E-03
  OSSO-CUT-1         582        154   746.E-03
  OSSO-CUT-1         582        603   746.E-03
  OSSO-CUT-1         582        784   746.E-03
  OSSO-CUT-1         583        203   281.E-03
  OSSO-CUT-1         583        523   281.E-03
  OSSO-CUT-1         583        614   281.E-03
  OSSO-CUT-1         583       1079   281.E-03
  OSSO-CUT-1         584        354   397.E-03
  OSSO-CUT-1         584        619   397.E-03
  OSSO-CUT-1         584        620   397.E-03
  OSSO-CUT-1         584        640   397.E-03
  OSSO-CUT-1         585        211   694.E-03
  OSSO-CUT-1         585        391   694.E-03
  OSSO-CUT-1         585        638   694.E-03
  OSSO-CUT-1         585        641   694.E-03
  OSSO-CUT-1         586         15   194.E-03
  OSSO-CUT-1         586         18   194.E-03
  OSSO-CUT-1         586        394   194.E-03
  OSSO-CUT-1         586        395   194.E-03
  OSSO-CUT-1         587        467   340.E-03
  OSSO-CUT-1         587        568   340.E-03
  OSSO-CUT-1         587        569   340.E-03
  OSSO-CUT-1         587        674   340.E-03
  OSSO-CUT-1         588         53   307.E-03
  OSSO-CUT-1         588        270   307.E-03
  OSSO-CUT-1         588        644   307.E-03
  OSSO-CUT-1         588        645   307.E-03
  OSSO-CUT-1         589         67   446.E-03
  OSSO-CUT-1         589        646   446.E-03
  OSSO-CUT-1         589        647   446.E-03
  OSSO-CUT-1         589        830   446.E-03
  OSSO-CUT-1         590        176   587.E-03
  OSSO-CUT-1         590        369   587.E-03
  OSSO-CUT-1         590        648   587.E-03
  OSSO-CUT-1         590        649   587.E-03
  OSSO-CUT-1         591        222   435.E-03
  OSSO-CUT-1         591        223   435.E-03
  OSSO-CUT-1         591        650   435.E-03
  OSSO-CUT-1         591        743   435.E-03
  OSSO-CUT-1         592        375   714.E-03
  OSSO-CUT-1         592        380   714.E-03
  OSSO-CUT-1         592        651   714.E-03
  OSSO-CUT-1         592        722   714.E-03
  OSSO-CUT-1         593        225    72.E-03
  OSSO-CUT-1         593        399    72.E-03
  OSSO-CUT-1         593        557    72.E-03
  OSSO-CUT-1         593        575    72.E-03
  OSSO-CUT-1         594        328   374.E-03
  OSSO-CUT-1         594        565   374.E-03
  OSSO-CUT-1         594        591   374.E-03
  OSSO-CUT-1         594        721   374.E-03
  OSSO-CUT-1         595        254   129.E-03
  OSSO-CUT-1         595        512   129.E-03
  OSSO-CUT-1         595        608   129.E-03
  OSSO-CUT-1         595        632   129.E-03
  OSSO-CUT-1         595        699   129.E-03
  OSSO-CUT-1         596         64   550.E-03
  OSSO-CUT-1         596        257   550.E-03
  OSSO-CUT-1         596        588   550.E-03
  OSSO-CUT-1         596        597   550.E-03
  OSSO-CUT-1         597         61   458.E-03
  OSSO-CUT-1         597        469   458.E-03
  OSSO-CUT-1         597        653   458.E-03
  OSSO-CUT-1         597        712   458.E-03
  OSSO-CUT-1         598         56   327.E-03
  OSSO-CUT-1         598        280   327.E-03
  OSSO-CUT-1         598        795   327.E-03
  OSSO-CUT-1         598        796   327.E-03
  OSSO-CUT-1         599        109   424.E-03
  OSSO-CUT-1         599        471   424.E-03
  OSSO-CUT-1         599        596   424.E-03
  OSSO-CUT-1         599       1080   424.E-03
  OSSO-CUT-1         600        102   324.E-03
  OSSO-CUT-1         600        567   324.E-03
  OSSO-CUT-1         600        573   324.E-03
  OSSO-CUT-1         600        574   324.E-03
  OSSO-CUT-1         601        111   515.E-03
  OSSO-CUT-1         601        586   515.E-03
  OSSO-CUT-1         601        655   515.E-03
  OSSO-CUT-1         601        656   515.E-03
  OSSO-CUT-1         602         49   132.E-03
  OSSO-CUT-1         602         92   132.E-03
  OSSO-CUT-1         602        658   132.E-03
  OSSO-CUT-1         602        734   132.E-03
  OSSO-CUT-1         603         36   413.E-03
  OSSO-CUT-1         603        318   413.E-03
  OSSO-CUT-1         603        592   413.E-03
  OSSO-CUT-1         603        659   413.E-03
  OSSO-CUT-1         604        286   147.E-03
  OSSO-CUT-1         604        313   147.E-03
  OSSO-CUT-1         604        660   147.E-03
  OSSO-CUT-1         604        661   147.E-03
  OSSO-CUT-1         605         57   309.E-03
  OSSO-CUT-1         605        281   309.E-03
  OSSO-CUT-1         605        662   309.E-03
  OSSO-CUT-1         605        663   309.E-03
  OSSO-CUT-1         606        174   798.E-03
  OSSO-CUT-1         606        578   798.E-03
  OSSO-CUT-1         606        652   798.E-03
  OSSO-CUT-1         606        723   798.E-03
  OSSO-CUT-1         607        178   335.E-03
  OSSO-CUT-1         607        344   335.E-03
  OSSO-CUT-1         607        622   335.E-03
  OSSO-CUT-1         607        680   335.E-03
  OSSO-CUT-1         608         28    96.E-03
  OSSO-CUT-1         608        576    96.E-03
  OSSO-CUT-1         608        602    96.E-03
  OSSO-CUT-1         608        664    96.E-03
  OSSO-CUT-1         609        158   343.E-03
  OSSO-CUT-1         609        162   343.E-03
  OSSO-CUT-1         609        382   343.E-03
  OSSO-CUT-1         609        606   343.E-03
  OSSO-CUT-1         610        111   516.E-03
  OSSO-CUT-1         610        258   516.E-03
  OSSO-CUT-1         610        294   516.E-03
  OSSO-CUT-1         610        586   516.E-03
  OSSO-CUT-1         611        280   339.E-03
  OSSO-CUT-1         611        287   339.E-03
  OSSO-CUT-1         611        564   339.E-03
  OSSO-CUT-1         611        665   339.E-03
  OSSO-CUT-1         612        220   219.E-03
  OSSO-CUT-1         612        468   219.E-03
  OSSO-CUT-1         612        600   219.E-03
  OSSO-CUT-1         612        601   219.E-03
  OSSO-CUT-1         613        570   362.E-03
  OSSO-CUT-1         613        666   362.E-03
  OSSO-CUT-1         613        672   362.E-03
  OSSO-CUT-1         613        697   362.E-03
  OSSO-CUT-1         614        133   458.E-03
  OSSO-CUT-1         614        358   458.E-03
  OSSO-CUT-1         614        480   458.E-03
  OSSO-CUT-1         614        604   458.E-03
  OSSO-CUT-1         615        231    68.E-03
  OSSO-CUT-1         615        242    68.E-03
  OSSO-CUT-1         615        552    68.E-03
  OSSO-CUT-1         615        667    68.E-03
  OSSO-CUT-1         616        377   325.E-03
  OSSO-CUT-1         616        668   325.E-03
  OSSO-CUT-1         616        669   325.E-03
  OSSO-CUT-1         616        720   325.E-03
  OSSO-CUT-1         617         58   315.E-03
  OSSO-CUT-1         617        572   315.E-03
  OSSO-CUT-1         617        662   315.E-03
  OSSO-CUT-1         617        670   315.E-03
  OSSO-CUT-1         618          4   408.E-03
  OSSO-CUT-1         618        222   408.E-03
  OSSO-CUT-1         618        650   408.E-03
  OSSO-CUT-1         618        671   408.E-03
  OSSO-CUT-1         619        119   282.E-03
  OSSO-CUT-1         619        120   282.E-03
  OSSO-CUT-1         619        121   282.E-03
  OSSO-CUT-1         619        673   282.E-03
  OSSO-CUT-1         620        593   439.E-03
  OSSO-CUT-1         620        643   439.E-03
  OSSO-CUT-1         620        675   439.E-03
  OSSO-CUT-1         620       1082   439.E-03
  OSSO-CUT-1         621         22    60.E-03
  OSSO-CUT-1         621        552    60.E-03
  OSSO-CUT-1         621        676    60.E-03
  OSSO-CUT-1         621        729    60.E-03
  OSSO-CUT-1         622        128   241.E-03
  OSSO-CUT-1         622        427   241.E-03
  OSSO-CUT-1         622        500   241.E-03
  OSSO-CUT-1         622        502   241.E-03
  OSSO-CUT-1         623        198   354.E-03
  OSSO-CUT-1         623        239   354.E-03
  OSSO-CUT-1         623        609   354.E-03
  OSSO-CUT-1         623        677   354.E-03
  OSSO-CUT-1         624          5   437.E-03
  OSSO-CUT-1         624        456   437.E-03
  OSSO-CUT-1         624        571   437.E-03
  OSSO-CUT-1         624        678   437.E-03
  OSSO-CUT-1         625        192   293.E-03
  OSSO-CUT-1         625        622   293.E-03
  OSSO-CUT-1         625        679   293.E-03
  OSSO-CUT-1         625        680   293.E-03
  OSSO-CUT-1         626        249   253.E-03
  OSSO-CUT-1         626        536   253.E-03
  OSSO-CUT-1         626        595   253.E-03
  OSSO-CUT-1         626        681   253.E-03
  OSSO-CUT-1         627         80   168.E-03
  OSSO-CUT-1         627        519   168.E-03
  OSSO-CUT-1         627        625   168.E-03
  OSSO-CUT-1         627        683   168.E-03
  OSSO-CUT-1         628        157   289.E-03
  OSSO-CUT-1         628        627   289.E-03
  OSSO-CUT-1         628        684   289.E-03
  OSSO-CUT-1         628        863   289.E-03
  OSSO-CUT-1         629        545   300.E-03
  OSSO-CUT-1         629        550   300.E-03
  OSSO-CUT-1         629        629   300.E-03
  OSSO-CUT-1         629        685   300.E-03
  OSSO-CUT-1         630        106   320.E-03
  OSSO-CUT-1         630        686   320.E-03
  OSSO-CUT-1         630        731   320.E-03
  OSSO-CUT-1         630       1077   320.E-03
  OSSO-CUT-1         631        118   236.E-03
  OSSO-CUT-1         631        300   236.E-03
  OSSO-CUT-1         631        563   236.E-03
  OSSO-CUT-1         631        581   236.E-03
  OSSO-CUT-1         632        358   465.E-03
  OSSO-CUT-1         632        385   465.E-03
  OSSO-CUT-1         632        605   465.E-03
  OSSO-CUT-1         632        715   465.E-03
  OSSO-CUT-1         632        783   465.E-03
  OSSO-CUT-1         633         98   330.E-03
  OSSO-CUT-1         633        551   330.E-03
  OSSO-CUT-1         633        628   330.E-03
  OSSO-CUT-1         633        688   330.E-03
  OSSO-CUT-1         633        707   330.E-03
  OSSO-CUT-1         634        498   515.E-03
  OSSO-CUT-1         634        499   515.E-03
  OSSO-CUT-1         634        607   515.E-03
  OSSO-CUT-1         634        689   515.E-03
  OSSO-CUT-1         635        259   517.E-03
  OSSO-CUT-1         635        260   517.E-03
  OSSO-CUT-1         635        583   517.E-03
  OSSO-CUT-1         635        584   517.E-03
  OSSO-CUT-1         636        472   137.E-03
  OSSO-CUT-1         636        602   137.E-03
  OSSO-CUT-1         636        664   137.E-03
  OSSO-CUT-1         636        691   137.E-03
  OSSO-CUT-1         637          1   424.E-03
  OSSO-CUT-1         637        643   424.E-03
  OSSO-CUT-1         637        674   424.E-03
  OSSO-CUT-1         638        132   375.E-03
  OSSO-CUT-1         638        384   375.E-03
  OSSO-CUT-1         638        692   375.E-03
  OSSO-CUT-1         638        693   375.E-03
  OSSO-CUT-1         639         69   493.E-03
  OSSO-CUT-1         639        607   493.E-03
  OSSO-CUT-1         639        689   493.E-03
  OSSO-CUT-1         639        694   493.E-03
  OSSO-CUT-1         640        243   183.E-03
  OSSO-CUT-1         640        244   183.E-03
  OSSO-CUT-1         640        599   183.E-03
  OSSO-CUT-1         640        695   183.E-03
  OSSO-CUT-1         641          4   383.E-03
  OSSO-CUT-1         641        671   383.E-03
  OSSO-CUT-1         641        672   383.E-03
  OSSO-CUT-1         641        697   383.E-03
  OSSO-CUT-1         642         91   128.E-03
  OSSO-CUT-1         642        632   128.E-03
  OSSO-CUT-1         642        698   128.E-03
  OSSO-CUT-1         642        699   128.E-03
  OSSO-CUT-1         643         84   188.E-03
  OSSO-CUT-1         643         89   188.E-03
  OSSO-CUT-1         643        695   188.E-03
  OSSO-CUT-1         643        716   188.E-03
  OSSO-CUT-1         644        567   308.E-03
  OSSO-CUT-1         644        629   308.E-03
  OSSO-CUT-1         644        685   308.E-03
  OSSO-CUT-1         645          2   244.E-03
  OSSO-CUT-1         645        221   244.E-03
  OSSO-CUT-1         645        635   244.E-03
  OSSO-CUT-1         645        748   244.E-03
  OSSO-CUT-1         646        259   472.E-03
  OSSO-CUT-1         646        260   472.E-03
  OSSO-CUT-1         646        702   472.E-03
  OSSO-CUT-1         646        746   472.E-03
  OSSO-CUT-1         647        215   394.E-03
  OSSO-CUT-1         647        579   394.E-03
  OSSO-CUT-1         647        594   394.E-03
  OSSO-CUT-1         647        636   394.E-03
  OSSO-CUT-1         648        464   490.E-03
  OSSO-CUT-1         648        588   490.E-03
  OSSO-CUT-1         648        597   490.E-03
  OSSO-CUT-1         648        704   490.E-03
  OSSO-CUT-1         649        569   356.E-03
  OSSO-CUT-1         649        643   356.E-03
  OSSO-CUT-1         649        674   356.E-03
  OSSO-CUT-1         649        675   356.E-03
  OSSO-CUT-1         649        705   356.E-03
  OSSO-CUT-1         650         25   326.E-03
  OSSO-CUT-1         650        650   326.E-03
  OSSO-CUT-1         650        671   326.E-03
  OSSO-CUT-1         650        770   326.E-03
  OSSO-CUT-1         651        244   202.E-03
  OSSO-CUT-1         651        599   202.E-03
  OSSO-CUT-1         651        706   202.E-03
  OSSO-CUT-1         651        760   202.E-03
  OSSO-CUT-1         652        104   340.E-03
  OSSO-CUT-1         652        305   340.E-03
  OSSO-CUT-1         652        688   340.E-03
  OSSO-CUT-1         652        707   340.E-03
  OSSO-CUT-1         653        240   315.E-03
  OSSO-CUT-1         653        609   315.E-03
  OSSO-CUT-1         653        677   315.E-03
  OSSO-CUT-1         653        708   315.E-03
  OSSO-CUT-1         654        198   372.E-03
  OSSO-CUT-1         654        199   372.E-03
  OSSO-CUT-1         654        571   372.E-03
  OSSO-CUT-1         654        677   372.E-03
  OSSO-CUT-1         655        110   411.E-03
  OSSO-CUT-1         655        471   411.E-03
  OSSO-CUT-1         655        711   411.E-03
  OSSO-CUT-1         655        786   411.E-03
  OSSO-CUT-1         656         92   143.E-03
  OSSO-CUT-1         656         93   143.E-03
  OSSO-CUT-1         656        516   143.E-03
  OSSO-CUT-1         656        621   143.E-03
  OSSO-CUT-1         657         61   491.E-03
  OSSO-CUT-1         657        258   491.E-03
  OSSO-CUT-1         657        294   491.E-03
  OSSO-CUT-1         657        469   491.E-03
  OSSO-CUT-1         658        588   454.E-03
  OSSO-CUT-1         658        704   454.E-03
  OSSO-CUT-1         658        712   454.E-03
  OSSO-CUT-1         658       1074   454.E-03
  OSSO-CUT-1         659        138   827.E-03
  OSSO-CUT-1         659        173   827.E-03
  OSSO-CUT-1         659        386   827.E-03
  OSSO-CUT-1         659        603   827.E-03
  OSSO-CUT-1         660        173   823.E-03
  OSSO-CUT-1         660        174   823.E-03
  OSSO-CUT-1         660        578   823.E-03
  OSSO-CUT-1         661          2   264.E-03
  OSSO-CUT-1         661        579   264.E-03
  OSSO-CUT-1         661        714   264.E-03
  OSSO-CUT-1         661        854   264.E-03
  OSSO-CUT-1         662        363   509.E-03
  OSSO-CUT-1         662        617   509.E-03
  OSSO-CUT-1         662        633   509.E-03
  OSSO-CUT-1         662        921   509.E-03
  OSSO-CUT-1         663        143   454.E-03
  OSSO-CUT-1         663        177   454.E-03
  OSSO-CUT-1         663        354   454.E-03
  OSSO-CUT-1         663        787   454.E-03
  OSSO-CUT-1         664         83   252.E-03
  OSSO-CUT-1         664        201   252.E-03
  OSSO-CUT-1         664        202   252.E-03
  OSSO-CUT-1         664        700   252.E-03
  OSSO-CUT-1         665         36   426.E-03
  OSSO-CUT-1         665        631   426.E-03
  OSSO-CUT-1         665        646   426.E-03
  OSSO-CUT-1         665        659   426.E-03
  OSSO-CUT-1         666        175   628.E-03
  OSSO-CUT-1         666        369   628.E-03
  OSSO-CUT-1         666        585   628.E-03
  OSSO-CUT-1         666        649   628.E-03
  OSSO-CUT-1         667        328   349.E-03
  OSSO-CUT-1         667        565   349.E-03
  OSSO-CUT-1         667        717   349.E-03
  OSSO-CUT-1         667        718   349.E-03
  OSSO-CUT-1         668        269   324.E-03
  OSSO-CUT-1         668        282   324.E-03
  OSSO-CUT-1         668        645   324.E-03
  OSSO-CUT-1         668        806   324.E-03
  OSSO-CUT-1         669        158   334.E-03
  OSSO-CUT-1         669        162   334.E-03
  OSSO-CUT-1         669        598   334.E-03
  OSSO-CUT-1         669       1085   334.E-03
  OSSO-CUT-1         670        318   396.E-03
  OSSO-CUT-1         670        591   396.E-03
  OSSO-CUT-1         670        592   396.E-03
  OSSO-CUT-1         670        721   396.E-03
  OSSO-CUT-1         671        557    68.E-03
  OSSO-CUT-1         671        575    68.E-03
  OSSO-CUT-1         671        576    68.E-03
  OSSO-CUT-1         671        728    68.E-03
  OSSO-CUT-1         672        380   757.E-03
  OSSO-CUT-1         672        652   757.E-03
  OSSO-CUT-1         672        722   757.E-03
  OSSO-CUT-1         672        723   757.E-03
  OSSO-CUT-1         673         49   133.E-03
  OSSO-CUT-1         673        285   133.E-03
  OSSO-CUT-1         673        566   133.E-03
  OSSO-CUT-1         673        658   133.E-03
  OSSO-CUT-1         674        344   395.E-03
  OSSO-CUT-1         674        640   395.E-03
  OSSO-CUT-1         674        724   395.E-03
  OSSO-CUT-1         674        725   395.E-03
  OSSO-CUT-1         675        259   527.E-03
  OSSO-CUT-1         675        583   527.E-03
  OSSO-CUT-1         675        587   527.E-03
  OSSO-CUT-1         675        690   527.E-03
  OSSO-CUT-1         676        132   413.E-03
  OSSO-CUT-1         676        385   413.E-03
  OSSO-CUT-1         676        692   413.E-03
  OSSO-CUT-1         676        715   413.E-03
  OSSO-CUT-1         677        157   306.E-03
  OSSO-CUT-1         677        377   306.E-03
  OSSO-CUT-1         677        627   306.E-03
  OSSO-CUT-1         677        668   306.E-03
  OSSO-CUT-1         678        655   479.E-03
  OSSO-CUT-1         678        656   479.E-03
  OSSO-CUT-1         678        831   479.E-03
  OSSO-CUT-1         678        932   479.E-03
  OSSO-CUT-1         679        383   348.E-03
  OSSO-CUT-1         679        384   348.E-03
  OSSO-CUT-1         679        693   348.E-03
  OSSO-CUT-1         679        719   348.E-03
  OSSO-CUT-1         680         22    60.E-03
  OSSO-CUT-1         680        557    60.E-03
  OSSO-CUT-1         680        676    60.E-03
  OSSO-CUT-1         680        728    60.E-03
  OSSO-CUT-1         681        552    65.E-03
  OSSO-CUT-1         681        667    65.E-03
  OSSO-CUT-1         681        729    65.E-03
  OSSO-CUT-1         682         68   481.E-03
  OSSO-CUT-1         682         69   481.E-03
  OSSO-CUT-1         682        690   481.E-03
  OSSO-CUT-1         682        730   481.E-03
  OSSO-CUT-1         683         96   306.E-03
  OSSO-CUT-1         683        107   306.E-03
  OSSO-CUT-1         683        731   306.E-03
  OSSO-CUT-1         683        732   306.E-03
  OSSO-CUT-1         684        249   223.E-03
  OSSO-CUT-1         684        595   223.E-03
  OSSO-CUT-1         684        682   223.E-03
  OSSO-CUT-1         684        733   223.E-03
  OSSO-CUT-1         685        623   138.E-03
  OSSO-CUT-1         685        657   138.E-03
  OSSO-CUT-1         685        698   138.E-03
  OSSO-CUT-1         685        734   138.E-03
  OSSO-CUT-1         686         83   230.E-03
  OSSO-CUT-1         686        555   230.E-03
  OSSO-CUT-1         686        700   230.E-03
  OSSO-CUT-1         686        716   230.E-03
  OSSO-CUT-1         687        111   461.E-03
  OSSO-CUT-1         687        655   461.E-03
  OSSO-CUT-1         687        736   461.E-03
  OSSO-CUT-1         687        885   461.E-03
  OSSO-CUT-1         688        178   372.E-03
  OSSO-CUT-1         688        344   372.E-03
  OSSO-CUT-1         688        724   372.E-03
  OSSO-CUT-1         688        738   372.E-03
  OSSO-CUT-1         689        289   455.E-03
  OSSO-CUT-1         689        464   455.E-03
  OSSO-CUT-1         689        703   455.E-03
  OSSO-CUT-1         689        704   455.E-03
  OSSO-CUT-1         690        631   435.E-03
  OSSO-CUT-1         690        646   435.E-03
  OSSO-CUT-1         690        741   435.E-03
  OSSO-CUT-1         690        830   435.E-03
  OSSO-CUT-1         691        223   444.E-03
  OSSO-CUT-1         691        642   444.E-03
  OSSO-CUT-1         691        742   444.E-03
  OSSO-CUT-1         691        743   444.E-03
  OSSO-CUT-1         691        781   444.E-03
  OSSO-CUT-1         692        724   403.E-03
  OSSO-CUT-1         692        738   403.E-03
  OSSO-CUT-1         692        744   403.E-03
  OSSO-CUT-1         692        808   403.E-03
  OSSO-CUT-1         693        104   320.E-03
  OSSO-CUT-1         693        567   320.E-03
  OSSO-CUT-1         693        573   320.E-03
  OSSO-CUT-1         693        629   320.E-03
  OSSO-CUT-1         693        745   320.E-03
  OSSO-CUT-1         694        260   453.E-03
  OSSO-CUT-1         694        703   453.E-03
  OSSO-CUT-1         694        739   453.E-03
  OSSO-CUT-1         694        746   453.E-03
  OSSO-CUT-1         695        216   205.E-03
  OSSO-CUT-1         695        635   205.E-03
  OSSO-CUT-1         695        748   205.E-03
  OSSO-CUT-1         695        780   205.E-03
  OSSO-CUT-1         696         81   242.E-03
  OSSO-CUT-1         696         83   242.E-03
  OSSO-CUT-1         696        555   242.E-03
  OSSO-CUT-1         696        615   242.E-03
  OSSO-CUT-1         697        259   482.E-03
  OSSO-CUT-1         697        690   482.E-03
  OSSO-CUT-1         697        702   482.E-03
  OSSO-CUT-1         697        730   482.E-03
  OSSO-CUT-1         698         61   418.E-03
  OSSO-CUT-1         698        262   418.E-03
  OSSO-CUT-1         698        653   418.E-03
  OSSO-CUT-1         698        798   418.E-03
  OSSO-CUT-1         699        153   532.E-03
  OSSO-CUT-1         699        605   532.E-03
  OSSO-CUT-1         699       1097   532.E-03
  OSSO-CUT-1         699       1098   532.E-03
  OSSO-CUT-1         700        110   427.E-03
  OSSO-CUT-1         700        710   427.E-03
  OSSO-CUT-1         700        753   427.E-03
  OSSO-CUT-1         700       1080   427.E-03
  OSSO-CUT-1         701        177   486.E-03
  OSSO-CUT-1         701        363   486.E-03
  OSSO-CUT-1         701        754   486.E-03
  OSSO-CUT-1         701        787   486.E-03
  OSSO-CUT-1         702        163   331.E-03
  OSSO-CUT-1         702        383   331.E-03
  OSSO-CUT-1         702        719   331.E-03
  OSSO-CUT-1         702        727   331.E-03
  OSSO-CUT-1         703        143   423.E-03
  OSSO-CUT-1         703        354   423.E-03
  OSSO-CUT-1         703        640   423.E-03
  OSSO-CUT-1         703        725   423.E-03
  OSSO-CUT-1         704        648   582.E-03
  OSSO-CUT-1         704        649   582.E-03
  OSSO-CUT-1         704        756   582.E-03
  OSSO-CUT-1         704        774   582.E-03
  OSSO-CUT-1         705        379   372.E-03
  OSSO-CUT-1         705        693   372.E-03
  OSSO-CUT-1         705        719   372.E-03
  OSSO-CUT-1         705        757   372.E-03
  OSSO-CUT-1         706        324   422.E-03
  OSSO-CUT-1         706        325   422.E-03
  OSSO-CUT-1         706        592   422.E-03
  OSSO-CUT-1         706        659   422.E-03
  OSSO-CUT-1         707         68   470.E-03
  OSSO-CUT-1         707         69   470.E-03
  OSSO-CUT-1         707        694   470.E-03
  OSSO-CUT-1         707        758   470.E-03
  OSSO-CUT-1         708        657   159.E-03
  OSSO-CUT-1         708        658   159.E-03
  OSSO-CUT-1         708        733   159.E-03
  OSSO-CUT-1         708        734   159.E-03
  OSSO-CUT-1         708        759   159.E-03
  OSSO-CUT-1         709        201   247.E-03
  OSSO-CUT-1         709        246   247.E-03
  OSSO-CUT-1         709        696   247.E-03
  OSSO-CUT-1         709        700   247.E-03
  OSSO-CUT-1         710        282   323.E-03
  OSSO-CUT-1         710        560   323.E-03
  OSSO-CUT-1         710        654   323.E-03
  OSSO-CUT-1         710        761   323.E-03
  OSSO-CUT-1         711        269   312.E-03
  OSSO-CUT-1         711        270   312.E-03
  OSSO-CUT-1         711        311   312.E-03
  OSSO-CUT-1         711        645   312.E-03
  OSSO-CUT-1         712        286   168.E-03
  OSSO-CUT-1         712        566   168.E-03
  OSSO-CUT-1         712        763   168.E-03
  OSSO-CUT-1         712       1094   168.E-03
  OSSO-CUT-1         713        687   326.E-03
  OSSO-CUT-1         713        764   326.E-03
  OSSO-CUT-1         713        797   326.E-03
  OSSO-CUT-1         713       1077   326.E-03
  OSSO-CUT-1         714         22    61.E-03
  OSSO-CUT-1         714         23    61.E-03
  OSSO-CUT-1         714        226    61.E-03
  OSSO-CUT-1         714        728    61.E-03
  OSSO-CUT-1         714        765    61.E-03
  OSSO-CUT-1         715        248   182.E-03
  OSSO-CUT-1         715        595   182.E-03
  OSSO-CUT-1         715        657   182.E-03
  OSSO-CUT-1         715        733   182.E-03
  OSSO-CUT-1         716        178   356.E-03
  OSSO-CUT-1         716        180   356.E-03
  OSSO-CUT-1         716        738   356.E-03
  OSSO-CUT-1         716        766   356.E-03
  OSSO-CUT-1         717        292   422.E-03
  OSSO-CUT-1         717        736   422.E-03
  OSSO-CUT-1         717        750   422.E-03
  OSSO-CUT-1         717        869   422.E-03
  OSSO-CUT-1         718        226    77.E-03
  OSSO-CUT-1         718        576    77.E-03
  OSSO-CUT-1         718        664    77.E-03
  OSSO-CUT-1         718        728    77.E-03
  OSSO-CUT-1         719        240   277.E-03
  OSSO-CUT-1         719        708   277.E-03
  OSSO-CUT-1         719        767   277.E-03
  OSSO-CUT-1         719        768   277.E-03
  OSSO-CUT-1         720         24   259.E-03
  OSSO-CUT-1         720         25   259.E-03
  OSSO-CUT-1         720        769   259.E-03
  OSSO-CUT-1         720        770   259.E-03
  OSSO-CUT-1         721        356   317.E-03
  OSSO-CUT-1         721        371   317.E-03
  OSSO-CUT-1         721        506   317.E-03
  OSSO-CUT-1         721        771   317.E-03
  OSSO-CUT-1         722        138   726.E-03
  OSSO-CUT-1         722        373   726.E-03
  OSSO-CUT-1         722        784   726.E-03
  OSSO-CUT-1         722        800   726.E-03
  OSSO-CUT-1         723        104   349.E-03
  OSSO-CUT-1         723        305   349.E-03
  OSSO-CUT-1         723        573   349.E-03
  OSSO-CUT-1         723        822   349.E-03
  OSSO-CUT-1         724        362   578.E-03
  OSSO-CUT-1         724        756   578.E-03
  OSSO-CUT-1         724        774   578.E-03
  OSSO-CUT-1         724        841   578.E-03
  OSSO-CUT-1         725        350   397.E-03
  OSSO-CUT-1         725        379   397.E-03
  OSSO-CUT-1         725        757   397.E-03
  OSSO-CUT-1         725        777   397.E-03
  OSSO-CUT-1         726        702   439.E-03
  OSSO-CUT-1         726        746   439.E-03
  OSSO-CUT-1         726        749   439.E-03
  OSSO-CUT-1         726        819   439.E-03
  OSSO-CUT-1         727         37   429.E-03
  OSSO-CUT-1         727        324   429.E-03
  OSSO-CUT-1         727        631   429.E-03
  OSSO-CUT-1         727        659   429.E-03
  OSSO-CUT-1         728        751   594.E-03
  OSSO-CUT-1         728        779   594.E-03
  OSSO-CUT-1         728        913   594.E-03
  OSSO-CUT-1         728        914   594.E-03
  OSSO-CUT-1         729         67   467.E-03
  OSSO-CUT-1         729        647   467.E-03
  OSSO-CUT-1         729        689   467.E-03
  OSSO-CUT-1         729        694   467.E-03
  OSSO-CUT-1         730         17   253.E-03
  OSSO-CUT-1         730        220   253.E-03
  OSSO-CUT-1         730        635   253.E-03
  OSSO-CUT-1         730        705   253.E-03
  OSSO-CUT-1         730        780   253.E-03
  OSSO-CUT-1         731          2   204.E-03
  OSSO-CUT-1         731        701   204.E-03
  OSSO-CUT-1         731        748   204.E-03
  OSSO-CUT-1         731        854   204.E-03
  OSSO-CUT-1         732        159   306.E-03
  OSSO-CUT-1         732        163   306.E-03
  OSSO-CUT-1         732        383   306.E-03
  OSSO-CUT-1         732        755   306.E-03
  OSSO-CUT-1         733          9   593.E-03
  OSSO-CUT-1         733        641   593.E-03
  OSSO-CUT-1         733        642   593.E-03
  OSSO-CUT-1         733        781   593.E-03
  OSSO-CUT-1         734        153   563.E-03
  OSSO-CUT-1         734        484   563.E-03
  OSSO-CUT-1         734       1084   563.E-03
  OSSO-CUT-1         734       1097   563.E-03
  OSSO-CUT-1         735        715   473.E-03
  OSSO-CUT-1         735        776   473.E-03
  OSSO-CUT-1         735        783   473.E-03
  OSSO-CUT-1         735        899   473.E-03
  OSSO-CUT-1         736        692   390.E-03
  OSSO-CUT-1         736        693   390.E-03
  OSSO-CUT-1         736        757   390.E-03
  OSSO-CUT-1         737        154   683.E-03
  OSSO-CUT-1         737        639   683.E-03
  OSSO-CUT-1         737        772   683.E-03
  OSSO-CUT-1         737        784   683.E-03
  OSSO-CUT-1         738        299   426.E-03
  OSSO-CUT-1         738        306   426.E-03
  OSSO-CUT-1         738        710   426.E-03
  OSSO-CUT-1         738        753   426.E-03
  OSSO-CUT-1         739        110   426.E-03
  OSSO-CUT-1         739        752   426.E-03
  OSSO-CUT-1         739        753   426.E-03
  OSSO-CUT-1         739        786   426.E-03
  OSSO-CUT-1         740        143   474.E-03
  OSSO-CUT-1         740        342   474.E-03
  OSSO-CUT-1         740        787   474.E-03
  OSSO-CUT-1         740        788   474.E-03
  OSSO-CUT-1         741        130   232.E-03
  OSSO-CUT-1         741        789   232.E-03
  OSSO-CUT-1         741        790   232.E-03
  OSSO-CUT-1         742        290   337.E-03
  OSSO-CUT-1         742        291   337.E-03
  OSSO-CUT-1         742        686   337.E-03
  OSSO-CUT-1         742       1089   337.E-03
  OSSO-CUT-1         743        179   307.E-03
  OSSO-CUT-1         743        189   307.E-03
  OSSO-CUT-1         743        766   307.E-03
  OSSO-CUT-1         743        834   307.E-03
  OSSO-CUT-1         744        324   436.E-03
  OSSO-CUT-1         744        325   436.E-03
  OSSO-CUT-1         744        793   436.E-03
  OSSO-CUT-1         744        794   436.E-03
  OSSO-CUT-1         745        270   277.E-03
  OSSO-CUT-1         745        644   277.E-03
  OSSO-CUT-1         745        811   277.E-03
  OSSO-CUT-1         745        812   277.E-03
  OSSO-CUT-1         746        560   322.E-03
  OSSO-CUT-1         746        654   322.E-03
  OSSO-CUT-1         746        795   322.E-03
  OSSO-CUT-1         746        796   322.E-03
  OSSO-CUT-1         747         59   338.E-03
  OSSO-CUT-1         747        797   338.E-03
  OSSO-CUT-1         747       1090   338.E-03
  OSSO-CUT-1         747       1099   338.E-03
  OSSO-CUT-1         748         61   441.E-03
  OSSO-CUT-1         748        294   441.E-03
  OSSO-CUT-1         748        750   441.E-03
  OSSO-CUT-1         748        798   441.E-03
  OSSO-CUT-1         749        139   700.E-03
  OSSO-CUT-1         749        373   700.E-03
  OSSO-CUT-1         749        799   700.E-03
  OSSO-CUT-1         749        800   700.E-03
  OSSO-CUT-1         750        767   237.E-03
  OSSO-CUT-1         750        768   237.E-03
  OSSO-CUT-1         750        801   237.E-03
  OSSO-CUT-1         750        868   237.E-03
  OSSO-CUT-1         751        356   345.E-03
  OSSO-CUT-1         751        371   345.E-03
  OSSO-CUT-1         751        802   345.E-03
  OSSO-CUT-1         752        250   215.E-03
  OSSO-CUT-1         752        284   215.E-03
  OSSO-CUT-1         752        763   215.E-03
  OSSO-CUT-1         752        803   215.E-03
  OSSO-CUT-1         753        261   404.E-03
  OSSO-CUT-1         753        289   404.E-03
  OSSO-CUT-1         753        747   404.E-03
  OSSO-CUT-1         753       1072   404.E-03
  OSSO-CUT-1         754        201   277.E-03
  OSSO-CUT-1         754        246   277.E-03
  OSSO-CUT-1         754        613   277.E-03
  OSSO-CUT-1         754        624   277.E-03
  OSSO-CUT-1         755         23    69.E-03
  OSSO-CUT-1         755        227    69.E-03
  OSSO-CUT-1         755        765    69.E-03
  OSSO-CUT-1         755        805    69.E-03
  OSSO-CUT-1         756        282   337.E-03
  OSSO-CUT-1         756        761   337.E-03
  OSSO-CUT-1         756        806   337.E-03
  OSSO-CUT-1         756        823   337.E-03
  OSSO-CUT-1         757        158   338.E-03
  OSSO-CUT-1         757        727   338.E-03
  OSSO-CUT-1         757       1085   338.E-03
  OSSO-CUT-1         757       1092   338.E-03
  OSSO-CUT-1         758        140   648.E-03
  OSSO-CUT-1         758        585   648.E-03
  OSSO-CUT-1         758        651   648.E-03
  OSSO-CUT-1         758        844   648.E-03
  OSSO-CUT-1         759         86   106.E-03
  OSSO-CUT-1         759        236   106.E-03
  OSSO-CUT-1         759        559   106.E-03
  OSSO-CUT-1         759        807   106.E-03
  OSSO-CUT-1         760        335   431.E-03
  OSSO-CUT-1         760        744   431.E-03
  OSSO-CUT-1         760        808   431.E-03
  OSSO-CUT-1         760        874   431.E-03
  OSSO-CUT-1         761         50   157.E-03
  OSSO-CUT-1         761         91   157.E-03
  OSSO-CUT-1         761        248   157.E-03
  OSSO-CUT-1         761        475   157.E-03
  OSSO-CUT-1         762          3   248.E-03
  OSSO-CUT-1         762         25   248.E-03
  OSSO-CUT-1         762        769   248.E-03
  OSSO-CUT-1         762        809   248.E-03
  OSSO-CUT-1         763         24   253.E-03
  OSSO-CUT-1         763        770   253.E-03
  OSSO-CUT-1         763        810   253.E-03
  OSSO-CUT-1         763        847   253.E-03
  OSSO-CUT-1         764        200   300.E-03
  OSSO-CUT-1         764        666   300.E-03
  OSSO-CUT-1         764        709   300.E-03
  OSSO-CUT-1         764       1115   300.E-03
  OSSO-CUT-1         765        342   489.E-03
  OSSO-CUT-1         765        788   489.E-03
  OSSO-CUT-1         765        850   489.E-03
  OSSO-CUT-1         765        906   489.E-03
  OSSO-CUT-1         766        284   228.E-03
  OSSO-CUT-1         766        682   228.E-03
  OSSO-CUT-1         766        762   228.E-03
  OSSO-CUT-1         766        811   228.E-03
  OSSO-CUT-1         767        638   386.E-03
  OSSO-CUT-1         767        641   386.E-03
  OSSO-CUT-1         767        781   386.E-03
  OSSO-CUT-1         767        813   386.E-03
  OSSO-CUT-1         768        298   416.E-03
  OSSO-CUT-1         768        752   416.E-03
  OSSO-CUT-1         768        786   416.E-03
  OSSO-CUT-1         768        851   416.E-03
  OSSO-CUT-1         768       1101   416.E-03
  OSSO-CUT-1         769        701   132.E-03
  OSSO-CUT-1         769        815   132.E-03
  OSSO-CUT-1         769        816   132.E-03
  OSSO-CUT-1         769       1095   132.E-03
  OSSO-CUT-1         770        236   120.E-03
  OSSO-CUT-1         770        807   120.E-03
  OSSO-CUT-1         770        817   120.E-03
  OSSO-CUT-1         770        870   120.E-03
  OSSO-CUT-1         771        263   416.E-03
  OSSO-CUT-1         771        749   416.E-03
  OSSO-CUT-1         771        818   416.E-03
  OSSO-CUT-1         771        819   416.E-03
  OSSO-CUT-1         772        654   345.E-03
  OSSO-CUT-1         772        761   345.E-03
  OSSO-CUT-1         772        821   345.E-03
  OSSO-CUT-1         772        950   345.E-03
  OSSO-CUT-1         773         17   331.E-03
  OSSO-CUT-1         773        630   331.E-03
  OSSO-CUT-1         773        675   331.E-03
  OSSO-CUT-1         773        705   331.E-03
  OSSO-CUT-1         774        573   368.E-03
  OSSO-CUT-1         774        574   368.E-03
  OSSO-CUT-1         774        711   368.E-03
  OSSO-CUT-1         774        822   368.E-03
  OSSO-CUT-1         775        283   353.E-03
  OSSO-CUT-1         775        761   353.E-03
  OSSO-CUT-1         775        821   353.E-03
  OSSO-CUT-1         775        823   353.E-03
  OSSO-CUT-1         776        153   525.E-03
  OSSO-CUT-1         776        479   525.E-03
  OSSO-CUT-1         776        484   525.E-03
  OSSO-CUT-1         776        604   525.E-03
  OSSO-CUT-1         777        378   390.E-03
  OSSO-CUT-1         777        777   390.E-03
  OSSO-CUT-1         777        843   390.E-03
  OSSO-CUT-1         777        856   390.E-03
  OSSO-CUT-1         778        140   603.E-03
  OSSO-CUT-1         778        362   603.E-03
  OSSO-CUT-1         778        367   603.E-03
  OSSO-CUT-1         778        774   603.E-03
  OSSO-CUT-1         779        130   267.E-03
  OSSO-CUT-1         779        355   267.E-03
  OSSO-CUT-1         779        506   267.E-03
  OSSO-CUT-1         779        771   267.E-03
  OSSO-CUT-1         779        790   267.E-03
  OSSO-CUT-1         780        350   441.E-03
  OSSO-CUT-1         780        776   441.E-03
  OSSO-CUT-1         780        826   441.E-03
  OSSO-CUT-1         781        216   167.E-03
  OSSO-CUT-1         781        217   167.E-03
  OSSO-CUT-1         781        780   167.E-03
  OSSO-CUT-1         781        827   167.E-03
  OSSO-CUT-1         782        359   557.E-03
  OSSO-CUT-1         782        374   557.E-03
  OSSO-CUT-1         782        779   557.E-03
  OSSO-CUT-1         782        828   557.E-03
  OSSO-CUT-1         783        217   201.E-03
  OSSO-CUT-1         783        220   201.E-03
  OSSO-CUT-1         783        600   201.E-03
  OSSO-CUT-1         783        780   201.E-03
  OSSO-CUT-1         784        647   448.E-03
  OSSO-CUT-1         784        829   448.E-03
  OSSO-CUT-1         784        830   448.E-03
  OSSO-CUT-1         785        752   434.E-03
  OSSO-CUT-1         785       1081   434.E-03
  OSSO-CUT-1         785       1101   434.E-03
  OSSO-CUT-1         786        139   745.E-03
  OSSO-CUT-1         786        174   745.E-03
  OSSO-CUT-1         786        373   745.E-03
  OSSO-CUT-1         786        723   745.E-03
  OSSO-CUT-1         787        317   443.E-03
  OSSO-CUT-1         787        740   443.E-03
  OSSO-CUT-1         787        794   443.E-03
  OSSO-CUT-1         787        861   443.E-03
  OSSO-CUT-1         788        179   322.E-03
  OSSO-CUT-1         788        833   322.E-03
  OSSO-CUT-1         788        834   322.E-03
  OSSO-CUT-1         788       1106   322.E-03
  OSSO-CUT-1         789        299   394.E-03
  OSSO-CUT-1         789        582   394.E-03
  OSSO-CUT-1         789        710   394.E-03
  OSSO-CUT-1         789        785   394.E-03
  OSSO-CUT-1         790        272   409.E-03
  OSSO-CUT-1         790        739   409.E-03
  OSSO-CUT-1         790        747   409.E-03
  OSSO-CUT-1         790       1103   409.E-03
  OSSO-CUT-1         791        371   346.E-03
  OSSO-CUT-1         791        802   346.E-03
  OSSO-CUT-1         791        824   346.E-03
  OSSO-CUT-1         791        836   346.E-03
  OSSO-CUT-1         792        768   232.E-03
  OSSO-CUT-1         792        801   232.E-03
  OSSO-CUT-1         792        871   232.E-03
  OSSO-CUT-1         792       1107   232.E-03
  OSSO-CUT-1         793        572   327.E-03
  OSSO-CUT-1         793        670   327.E-03
  OSSO-CUT-1         793        840   327.E-03
  OSSO-CUT-1         793       1090   327.E-03
  OSSO-CUT-1         794        142   528.E-03
  OSSO-CUT-1         794        754   528.E-03
  OSSO-CUT-1         794        775   528.E-03
  OSSO-CUT-1         794        902   528.E-03
  OSSO-CUT-1         795        250   259.E-03
  OSSO-CUT-1         795        812   259.E-03
  OSSO-CUT-1         795        842   259.E-03
  OSSO-CUT-1         795        905   259.E-03
  OSSO-CUT-1         795       1109   259.E-03
  OSSO-CUT-1         796        131   360.E-03
  OSSO-CUT-1         796        378   360.E-03
  OSSO-CUT-1         796        726   360.E-03
  OSSO-CUT-1         796        843   360.E-03
  OSSO-CUT-1         796       1086   360.E-03
  OSSO-CUT-1         797        246   242.E-03
  OSSO-CUT-1         797        696   242.E-03
  OSSO-CUT-1         797        760   242.E-03
  OSSO-CUT-1         797        804   242.E-03
  OSSO-CUT-1         798        140   629.E-03
  OSSO-CUT-1         798        367   629.E-03
  OSSO-CUT-1         798        844   629.E-03
  OSSO-CUT-1         798        876   629.E-03
  OSSO-CUT-1         799          3   289.E-03
  OSSO-CUT-1         799        742   289.E-03
  OSSO-CUT-1         799        743   289.E-03
  OSSO-CUT-1         799        845   289.E-03
  OSSO-CUT-1         800         24   199.E-03
  OSSO-CUT-1         800        229   199.E-03
  OSSO-CUT-1         800        846   199.E-03
  OSSO-CUT-1         800        847   199.E-03
  OSSO-CUT-1         801        129   146.E-03
  OSSO-CUT-1         801        155   146.E-03
  OSSO-CUT-1         801        156   146.E-03
  OSSO-CUT-1         801        430   146.E-03
  OSSO-CUT-1         802        277   365.E-03
  OSSO-CUT-1         802        848   365.E-03
  OSSO-CUT-1         802        864   365.E-03
  OSSO-CUT-1         802        920   365.E-03
  OSSO-CUT-1         803        143   447.E-03
  OSSO-CUT-1         803        725   447.E-03
  OSSO-CUT-1         803        788   447.E-03
  OSSO-CUT-1         803       1121   447.E-03
  OSSO-CUT-1         804        298   394.E-03
  OSSO-CUT-1         804        773   394.E-03
  OSSO-CUT-1         804        851   394.E-03
  OSSO-CUT-1         805        250   247.E-03
  OSSO-CUT-1         805        284   247.E-03
  OSSO-CUT-1         805        811   247.E-03
  OSSO-CUT-1         805        812   247.E-03
  OSSO-CUT-1         806        816   108.E-03
  OSSO-CUT-1         806        873   108.E-03
  OSSO-CUT-1         806        896   108.E-03
  OSSO-CUT-1         806       1095   108.E-03
  OSSO-CUT-1         807        701   163.E-03
  OSSO-CUT-1         807        815   163.E-03
  OSSO-CUT-1         807        853   163.E-03
  OSSO-CUT-1         807        854   163.E-03
  OSSO-CUT-1         808        273   398.E-03
  OSSO-CUT-1         808        818   398.E-03
  OSSO-CUT-1         808        819   398.E-03
  OSSO-CUT-1         808        855   398.E-03
  OSSO-CUT-1         808       1103   398.E-03
  OSSO-CUT-1         809        219   218.E-03
  OSSO-CUT-1         809        637   218.E-03
  OSSO-CUT-1         809        713   218.E-03
  OSSO-CUT-1         809        813   218.E-03
  OSSO-CUT-1         810        357   444.E-03
  OSSO-CUT-1         810        778   444.E-03
  OSSO-CUT-1         810        826   444.E-03
  OSSO-CUT-1         810        856   444.E-03
  OSSO-CUT-1         811        359   521.E-03
  OSSO-CUT-1         811        828   521.E-03
  OSSO-CUT-1         811        899   521.E-03
  OSSO-CUT-1         811       1041   521.E-03
  OSSO-CUT-1         812        267   362.E-03
  OSSO-CUT-1         812        268   362.E-03
  OSSO-CUT-1         812        283   362.E-03
  OSSO-CUT-1         812        823   362.E-03
  OSSO-CUT-1         813        141   574.E-03
  OSSO-CUT-1         813        362   574.E-03
  OSSO-CUT-1         813        841   574.E-03
  OSSO-CUT-1         813        859   574.E-03
  OSSO-CUT-1         814        374   587.E-03
  OSSO-CUT-1         814        779   587.E-03
  OSSO-CUT-1         814        913   587.E-03
  OSSO-CUT-1         814       1013   587.E-03
  OSSO-CUT-1         815        139   675.E-03
  OSSO-CUT-1         815        799   675.E-03
  OSSO-CUT-1         815        832   675.E-03
  OSSO-CUT-1         815        881   675.E-03
  OSSO-CUT-1         816        793   445.E-03
  OSSO-CUT-1         816        794   445.E-03
  OSSO-CUT-1         816        861   445.E-03
  OSSO-CUT-1         816        889   445.E-03
  OSSO-CUT-1         817        356   372.E-03
  OSSO-CUT-1         817        802   372.E-03
  OSSO-CUT-1         817        862   372.E-03
  OSSO-CUT-1         817        975   372.E-03
  OSSO-CUT-1         818        131   350.E-03
  OSSO-CUT-1         818        726   350.E-03
  OSSO-CUT-1         818        824   350.E-03
  OSSO-CUT-1         818        836   350.E-03
  OSSO-CUT-1         819         59   355.E-03
  OSSO-CUT-1         819        276   355.E-03
  OSSO-CUT-1         819        277   355.E-03
  OSSO-CUT-1         819        849   355.E-03
  OSSO-CUT-1         820        114   355.E-03
  OSSO-CUT-1         820        116   355.E-03
  OSSO-CUT-1         820        299   355.E-03
  OSSO-CUT-1         820        478   355.E-03
  OSSO-CUT-1         820        785   355.E-03
  OSSO-CUT-1         821        589   231.E-03
  OSSO-CUT-1         821        842   231.E-03
  OSSO-CUT-1         821        952   231.E-03
  OSSO-CUT-1         821       1109   231.E-03
  OSSO-CUT-1         822          3   221.E-03
  OSSO-CUT-1         822         26   221.E-03
  OSSO-CUT-1         822        809   221.E-03
  OSSO-CUT-1         822        845   221.E-03
  OSSO-CUT-1         823        355   273.E-03
  OSSO-CUT-1         823        505   273.E-03
  OSSO-CUT-1         823        825   273.E-03
  OSSO-CUT-1         823       1087   273.E-03
  OSSO-CUT-1         824        295   360.E-03
  OSSO-CUT-1         824        791   360.E-03
  OSSO-CUT-1         824        866   360.E-03
  OSSO-CUT-1         824       1089   360.E-03
  OSSO-CUT-1         825         37   434.E-03
  OSSO-CUT-1         825         71   434.E-03
  OSSO-CUT-1         825        631   434.E-03
  OSSO-CUT-1         825        741   434.E-03
  OSSO-CUT-1         826        229   127.E-03
  OSSO-CUT-1         826        230   127.E-03
  OSSO-CUT-1         826        915   127.E-03
  OSSO-CUT-1         826        927   127.E-03
  OSSO-CUT-1         826        943   127.E-03
  OSSO-CUT-1         827        292   409.E-03
  OSSO-CUT-1         827        750   409.E-03
  OSSO-CUT-1         827        798   409.E-03
  OSSO-CUT-1         827        865   409.E-03
  OSSO-CUT-1         828        162   335.E-03
  OSSO-CUT-1         828        598   335.E-03
  OSSO-CUT-1         828        669   335.E-03
  OSSO-CUT-1         828        720   335.E-03
  OSSO-CUT-1         829        237   195.E-03
  OSSO-CUT-1         829        238   195.E-03
  OSSO-CUT-1         829        801   195.E-03
  OSSO-CUT-1         829        871   195.E-03
  OSSO-CUT-1         830        227    76.E-03
  OSSO-CUT-1         830        235    76.E-03
  OSSO-CUT-1         830        765    76.E-03
  OSSO-CUT-1         830        917    76.E-03
  OSSO-CUT-1         831        179   243.E-03
  OSSO-CUT-1         831        189   243.E-03
  OSSO-CUT-1         831        835   243.E-03
  OSSO-CUT-1         831        872   243.E-03
  OSSO-CUT-1         831        890   243.E-03
  OSSO-CUT-1         832        131   382.E-03
  OSSO-CUT-1         832        824   382.E-03
  OSSO-CUT-1         832       1112   382.E-03
  OSSO-CUT-1         832       1114   382.E-03
  OSSO-CUT-1         833        305   376.E-03
  OSSO-CUT-1         833        773   376.E-03
  OSSO-CUT-1         833        822   376.E-03
  OSSO-CUT-1         833        851   376.E-03
  OSSO-CUT-1         834         23    75.E-03
  OSSO-CUT-1         834         27    75.E-03
  OSSO-CUT-1         834        228    75.E-03
  OSSO-CUT-1         834        805    75.E-03
  OSSO-CUT-1         835        144   458.E-03
  OSSO-CUT-1         835        335   458.E-03
  OSSO-CUT-1         835        874   458.E-03
  OSSO-CUT-1         835        875   458.E-03
  OSSO-CUT-1         836        367   612.E-03
  OSSO-CUT-1         836        876   612.E-03
  OSSO-CUT-1         836       1118   612.E-03
  OSSO-CUT-1         836       1123   612.E-03
  OSSO-CUT-1         837        599   219.E-03
  OSSO-CUT-1         837        696   219.E-03
  OSSO-CUT-1         837        760   219.E-03
  OSSO-CUT-1         838        142   513.E-03
  OSSO-CUT-1         838        342   513.E-03
  OSSO-CUT-1         838        906   513.E-03
  OSSO-CUT-1         838       1020   513.E-03
  OSSO-CUT-1         839        144   449.E-03
  OSSO-CUT-1         839        145   449.E-03
  OSSO-CUT-1         839        874   449.E-03
  OSSO-CUT-1         839        878   449.E-03
  OSSO-CUT-1         840        237   181.E-03
  OSSO-CUT-1         840        244   181.E-03
  OSSO-CUT-1         840        706   181.E-03
  OSSO-CUT-1         840        879   181.E-03
  OSSO-CUT-1         841        356   344.E-03
  OSSO-CUT-1         841        365   344.E-03
  OSSO-CUT-1         841        771   344.E-03
  OSSO-CUT-1         841        862   344.E-03
  OSSO-CUT-1         842        832   653.E-03
  OSSO-CUT-1         842        844   653.E-03
  OSSO-CUT-1         842        876   653.E-03
  OSSO-CUT-1         842        881   653.E-03
  OSSO-CUT-1         843        474   124.E-03
  OSSO-CUT-1         843        539   124.E-03
  OSSO-CUT-1         843        608   124.E-03
  OSSO-CUT-1         843        882   124.E-03
  OSSO-CUT-1         844        237   156.E-03
  OSSO-CUT-1         844        238   156.E-03
  OSSO-CUT-1         844        807   156.E-03
  OSSO-CUT-1         844        870   156.E-03
  OSSO-CUT-1         844        879   156.E-03
  OSSO-CUT-1         845        232    95.E-03
  OSSO-CUT-1         845        236    95.E-03
  OSSO-CUT-1         845        817    95.E-03
  OSSO-CUT-1         845        883    95.E-03
  OSSO-CUT-1         846        180   370.E-03
  OSSO-CUT-1         846        833   370.E-03
  OSSO-CUT-1         846        834   370.E-03
  OSSO-CUT-1         846        877   370.E-03
  OSSO-CUT-1         846        911   370.E-03
  OSSO-CUT-1         847        116   424.E-03
  OSSO-CUT-1         847        299   424.E-03
  OSSO-CUT-1         847        306   424.E-03
  OSSO-CUT-1         847        419   424.E-03
  OSSO-CUT-1         848        280   340.E-03
  OSSO-CUT-1         848        665   340.E-03
  OSSO-CUT-1         848        796   340.E-03
  OSSO-CUT-1         848        820   340.E-03
  OSSO-CUT-1         849        175   670.E-03
  OSSO-CUT-1         849        375   670.E-03
  OSSO-CUT-1         849        585   670.E-03
  OSSO-CUT-1         849        651   670.E-03
  OSSO-CUT-1         850        152   660.E-03
  OSSO-CUT-1         850        799   660.E-03
  OSSO-CUT-1         850        800   660.E-03
  OSSO-CUT-1         850        860   660.E-03
  OSSO-CUT-1         851        341   381.E-03
  OSSO-CUT-1         851        565   381.E-03
  OSSO-CUT-1         851        718   381.E-03
  OSSO-CUT-1         851        884   381.E-03
  OSSO-CUT-1         852         53   289.E-03
  OSSO-CUT-1         852        249   289.E-03
  OSSO-CUT-1         852        644   289.E-03
  OSSO-CUT-1         852        681   289.E-03
  OSSO-CUT-1         853        293   450.E-03
  OSSO-CUT-1         853        655   450.E-03
  OSSO-CUT-1         853        831   450.E-03
  OSSO-CUT-1         853        885   450.E-03
  OSSO-CUT-1         854        343   490.E-03
  OSSO-CUT-1         854        850   490.E-03
  OSSO-CUT-1         854        875   490.E-03
  OSSO-CUT-1         854        887   490.E-03
  OSSO-CUT-1         855        279   357.E-03
  OSSO-CUT-1         855        564   357.E-03
  OSSO-CUT-1         855        665   357.E-03
  OSSO-CUT-1         855        963   357.E-03
  OSSO-CUT-1         856        279   358.E-03
  OSSO-CUT-1         856        665   358.E-03
  OSSO-CUT-1         856        820   358.E-03
  OSSO-CUT-1         856        888   358.E-03
  OSSO-CUT-1         857        323   450.E-03
  OSSO-CUT-1         857        793   450.E-03
  OSSO-CUT-1         857        889   450.E-03
  OSSO-CUT-1         857        903   450.E-03
  OSSO-CUT-1         858        193   174.E-03
  OSSO-CUT-1         858        447   174.E-03
  OSSO-CUT-1         858        835   174.E-03
  OSSO-CUT-1         858        872   174.E-03
  OSSO-CUT-1         859         44   194.E-03
  OSSO-CUT-1         859        872   194.E-03
  OSSO-CUT-1         859        890   194.E-03
  OSSO-CUT-1         859        891   194.E-03
  OSSO-CUT-1         860        273   373.E-03
  OSSO-CUT-1         860        848   373.E-03
  OSSO-CUT-1         860        855   373.E-03
  OSSO-CUT-1         860        892   373.E-03
  OSSO-CUT-1         861        319   424.E-03
  OSSO-CUT-1         861        884   424.E-03
  OSSO-CUT-1         861        893   424.E-03
  OSSO-CUT-1         861        925   424.E-03
  OSSO-CUT-1         861        955   424.E-03
  OSSO-CUT-1         862        368   598.E-03
  OSSO-CUT-1         862        894   598.E-03
  OSSO-CUT-1         862       1014   598.E-03
  OSSO-CUT-1         862       1126   598.E-03
  OSSO-CUT-1         863        637   221.E-03
  OSSO-CUT-1         863        742   221.E-03
  OSSO-CUT-1         863        845   221.E-03
  OSSO-CUT-1         863        895   221.E-03
  OSSO-CUT-1         864         26   153.E-03
  OSSO-CUT-1         864        852   153.E-03
  OSSO-CUT-1         864        928   153.E-03
  OSSO-CUT-1         864       1096   153.E-03
  OSSO-CUT-1         865        298   389.E-03
  OSSO-CUT-1         865        737   389.E-03
  OSSO-CUT-1         865        773   389.E-03
  OSSO-CUT-1         865        814   389.E-03
  OSSO-CUT-1         865        897   389.E-03
  OSSO-CUT-1         866        115   423.E-03
  OSSO-CUT-1         866        116   423.E-03
  OSSO-CUT-1         866        117   423.E-03
  OSSO-CUT-1         866        419   423.E-03
  OSSO-CUT-1         867        263   402.E-03
  OSSO-CUT-1         867        278   402.E-03
  OSSO-CUT-1         867        818   402.E-03
  OSSO-CUT-1         867        898   402.E-03
  OSSO-CUT-1         868        104   325.E-03
  OSSO-CUT-1         868        688   325.E-03
  OSSO-CUT-1         868        745   325.E-03
  OSSO-CUT-1         869        216   133.E-03
  OSSO-CUT-1         869        816   133.E-03
  OSSO-CUT-1         869        827   133.E-03
  OSSO-CUT-1         869        873   133.E-03
  OSSO-CUT-1         870        359   517.E-03
  OSSO-CUT-1         870        783   517.E-03
  OSSO-CUT-1         870        899   517.E-03
  OSSO-CUT-1         870        900   517.E-03
  OSSO-CUT-1         871        233   134.E-03
  OSSO-CUT-1         871        234   134.E-03
  OSSO-CUT-1         871        867   134.E-03
  OSSO-CUT-1         872        756   553.E-03
  OSSO-CUT-1         872        775   553.E-03
  OSSO-CUT-1         872        841   553.E-03
  OSSO-CUT-1         872        902   553.E-03
  OSSO-CUT-1         873        319   436.E-03
  OSSO-CUT-1         873        325   436.E-03
  OSSO-CUT-1         873        793   436.E-03
  OSSO-CUT-1         873        893   436.E-03
  OSSO-CUT-1         873        903   436.E-03
  OSSO-CUT-1         874         37   437.E-03
  OSSO-CUT-1         874         71   437.E-03
  OSSO-CUT-1         874        740   437.E-03
  OSSO-CUT-1         874        953   437.E-03
  OSSO-CUT-1         875        267   379.E-03
  OSSO-CUT-1         875        283   379.E-03
  OSSO-CUT-1         875        904   379.E-03
  OSSO-CUT-1         875        929   379.E-03
  OSSO-CUT-1         876        269   325.E-03
  OSSO-CUT-1         876        311   325.E-03
  OSSO-CUT-1         876        858   325.E-03
  OSSO-CUT-1         876        931   325.E-03
  OSSO-CUT-1         877        343   500.E-03
  OSSO-CUT-1         877        850   500.E-03
  OSSO-CUT-1         877        906   500.E-03
  OSSO-CUT-1         878         59   357.E-03
  OSSO-CUT-1         878        849   357.E-03
  OSSO-CUT-1         878        907   357.E-03
  OSSO-CUT-1         878        936   357.E-03
  OSSO-CUT-1         878       1099   357.E-03
  OSSO-CUT-1         879        865   380.E-03
  OSSO-CUT-1         879        866   380.E-03
  OSSO-CUT-1         879        908   380.E-03
  OSSO-CUT-1         880        251   284.E-03
  OSSO-CUT-1         880        842   284.E-03
  OSSO-CUT-1         880        905   284.E-03
  OSSO-CUT-1         880        947   284.E-03
  OSSO-CUT-1         881        312   166.E-03
  OSSO-CUT-1         881        313   166.E-03
  OSSO-CUT-1         881        589   166.E-03
  OSSO-CUT-1         881        660   166.E-03
  OSSO-CUT-1         882        262   374.E-03
  OSSO-CUT-1         882        295   374.E-03
  OSSO-CUT-1         882        909   374.E-03
  OSSO-CUT-1         882        910   374.E-03
  OSSO-CUT-1         883        238   151.E-03
  OSSO-CUT-1         883        870   151.E-03
  OSSO-CUT-1         883       1100   151.E-03
  OSSO-CUT-1         883       1110   151.E-03
  OSSO-CUT-1         884        144   468.E-03
  OSSO-CUT-1         884        336   468.E-03
  OSSO-CUT-1         884        878   468.E-03
  OSSO-CUT-1         885        145   413.E-03
  OSSO-CUT-1         885        877   413.E-03
  OSSO-CUT-1         885        911   413.E-03
  OSSO-CUT-1         885        964   413.E-03
  OSSO-CUT-1         886        682   199.E-03
  OSSO-CUT-1         886        733   199.E-03
  OSSO-CUT-1         886        759   199.E-03
  OSSO-CUT-1         886        762   199.E-03
  OSSO-CUT-1         887        232    74.E-03
  OSSO-CUT-1         887        235    74.E-03
  OSSO-CUT-1         887        667    74.E-03
  OSSO-CUT-1         887        729    74.E-03
  OSSO-CUT-1         887        883    74.E-03
  OSSO-CUT-1         888        825   314.E-03
  OSSO-CUT-1         888        880   314.E-03
  OSSO-CUT-1         888        934   314.E-03
  OSSO-CUT-1         888       1087   314.E-03
  OSSO-CUT-1         889        152   628.E-03
  OSSO-CUT-1         889        860   628.E-03
  OSSO-CUT-1         889        913   628.E-03
  OSSO-CUT-1         889        914   628.E-03
  OSSO-CUT-1         890        227    91.E-03
  OSSO-CUT-1         890        230    91.E-03
  OSSO-CUT-1         890        805    91.E-03
  OSSO-CUT-1         890        915    91.E-03
  OSSO-CUT-1         891        228   105.E-03
  OSSO-CUT-1         891        735   105.E-03
  OSSO-CUT-1         891        827   105.E-03
  OSSO-CUT-1         891        873   105.E-03
  OSSO-CUT-1         892        232    90.E-03
  OSSO-CUT-1         892        235    90.E-03
  OSSO-CUT-1         892        916    90.E-03
  OSSO-CUT-1         892        917    90.E-03
  OSSO-CUT-1         893        670   334.E-03
  OSSO-CUT-1         893        840   334.E-03
  OSSO-CUT-1         893        918   334.E-03
  OSSO-CUT-1         893        919   334.E-03
  OSSO-CUT-1         894        275   364.E-03
  OSSO-CUT-1         894        288   364.E-03
  OSSO-CUT-1         894        855   364.E-03
  OSSO-CUT-1         894        892   364.E-03
  OSSO-CUT-1         895        648   550.E-03
  OSSO-CUT-1         895        756   550.E-03
  OSSO-CUT-1         895        902   550.E-03
  OSSO-CUT-1         895        921   550.E-03
  OSSO-CUT-1         896        833   371.E-03
  OSSO-CUT-1         896        911   371.E-03
  OSSO-CUT-1         896        922   371.E-03
  OSSO-CUT-1         896        923   371.E-03
  OSSO-CUT-1         897        317   446.E-03
  OSSO-CUT-1         897        326   446.E-03
  OSSO-CUT-1         897        861   446.E-03
  OSSO-CUT-1         897       1028   446.E-03
  OSSO-CUT-1         898        189   263.E-03
  OSSO-CUT-1         898        679   263.E-03
  OSSO-CUT-1         898        680   263.E-03
  OSSO-CUT-1         898        835   263.E-03
  OSSO-CUT-1         899        276   355.E-03
  OSSO-CUT-1         899        277   355.E-03
  OSSO-CUT-1         899        920   355.E-03
  OSSO-CUT-1         900         42   250.E-03
  OSSO-CUT-1         900        314   250.E-03
  OSSO-CUT-1         900        924   250.E-03
  OSSO-CUT-1         900        942   250.E-03
  OSSO-CUT-1         901         27    89.E-03
  OSSO-CUT-1         901        228    89.E-03
  OSSO-CUT-1         901        873    89.E-03
  OSSO-CUT-1         901        896    89.E-03
  OSSO-CUT-1         902        341   404.E-03
  OSSO-CUT-1         902        884   404.E-03
  OSSO-CUT-1         902        925   404.E-03
  OSSO-CUT-1         903        263   429.E-03
  OSSO-CUT-1         903        264   429.E-03
  OSSO-CUT-1         903        749   429.E-03
  OSSO-CUT-1         903       1021   429.E-03
  OSSO-CUT-1         904        293   418.E-03
  OSSO-CUT-1         904        298   418.E-03
  OSSO-CUT-1         904        737   418.E-03
  OSSO-CUT-1         904       1101   418.E-03
  OSSO-CUT-1         905        229   149.E-03
  OSSO-CUT-1         905        846   149.E-03
  OSSO-CUT-1         905        852   149.E-03
  OSSO-CUT-1         905        927   149.E-03
  OSSO-CUT-1         905        928   149.E-03
  OSSO-CUT-1         906        283   372.E-03
  OSSO-CUT-1         906        310   372.E-03
  OSSO-CUT-1         906        821   372.E-03
  OSSO-CUT-1         906        929   372.E-03
  OSSO-CUT-1         907        268   347.E-03
  OSSO-CUT-1         907        858   347.E-03
  OSSO-CUT-1         907        930   347.E-03
  OSSO-CUT-1         907        931   347.E-03
  OSSO-CUT-1         907        965   347.E-03
  OSSO-CUT-1         908        288   346.E-03
  OSSO-CUT-1         908        892   346.E-03
  OSSO-CUT-1         908        918   346.E-03
  OSSO-CUT-1         908        919   346.E-03
  OSSO-CUT-1         909        112   491.E-03
  OSSO-CUT-1         909        117   491.E-03
  OSSO-CUT-1         909        419   491.E-03
  OSSO-CUT-1         909        932   491.E-03
  OSSO-CUT-1         910        880   380.E-03
  OSSO-CUT-1         910        912   380.E-03
  OSSO-CUT-1         910        933   380.E-03
  OSSO-CUT-1         910       1093   380.E-03
  OSSO-CUT-1         911        360   303.E-03
  OSSO-CUT-1         911        934   303.E-03
  OSSO-CUT-1         911        935   303.E-03
  OSSO-CUT-1         911       1078   303.E-03
  OSSO-CUT-1         912         60   377.E-03
  OSSO-CUT-1         912        907   377.E-03
  OSSO-CUT-1         912        910   377.E-03
  OSSO-CUT-1         912        936   377.E-03
  OSSO-CUT-1         913        233   113.E-03
  OSSO-CUT-1         913        234   113.E-03
  OSSO-CUT-1         913        916   113.E-03
  OSSO-CUT-1         913        917   113.E-03
  OSSO-CUT-1         914        200   242.E-03
  OSSO-CUT-1         914        810   242.E-03
  OSSO-CUT-1         914        838   242.E-03
  OSSO-CUT-1         914        847   242.E-03
  OSSO-CUT-1         914        937   242.E-03
  OSSO-CUT-1         915        150   574.E-03
  OSSO-CUT-1         915        894   574.E-03
  OSSO-CUT-1         915        988   574.E-03
  OSSO-CUT-1         915       1122   574.E-03
  OSSO-CUT-1         915       1125   574.E-03
  OSSO-CUT-1         916        297   372.E-03
  OSSO-CUT-1         916        908   372.E-03
  OSSO-CUT-1         916        940   372.E-03
  OSSO-CUT-1         916        972   372.E-03
  OSSO-CUT-1         917         60   397.E-03
  OSSO-CUT-1         917        262   397.E-03
  OSSO-CUT-1         917        653   397.E-03
  OSSO-CUT-1         917        910   397.E-03
  OSSO-CUT-1         918        148   498.E-03
  OSSO-CUT-1         918        886   498.E-03
  OSSO-CUT-1         918        887   498.E-03
  OSSO-CUT-1         919         43   136.E-03
  OSSO-CUT-1         919        312   136.E-03
  OSSO-CUT-1         919        590   136.E-03
  OSSO-CUT-1         919        984   136.E-03
  OSSO-CUT-1         920        234   133.E-03
  OSSO-CUT-1         920        867   133.E-03
  OSSO-CUT-1         920        915   133.E-03
  OSSO-CUT-1         920        943   133.E-03
  OSSO-CUT-1         921        279   377.E-03
  OSSO-CUT-1         921        888   377.E-03
  OSSO-CUT-1         921        945   377.E-03
  OSSO-CUT-1         921        970   377.E-03
  OSSO-CUT-1         922        637   180.E-03
  OSSO-CUT-1         922        713   180.E-03
  OSSO-CUT-1         922        853   180.E-03
  OSSO-CUT-1         922        895   180.E-03
  OSSO-CUT-1         923         27    95.E-03
  OSSO-CUT-1         923        230    95.E-03
  OSSO-CUT-1         923        896    95.E-03
  OSSO-CUT-1         923        927    95.E-03
  OSSO-CUT-1         924        627   316.E-03
  OSSO-CUT-1         924        726   316.E-03
  OSSO-CUT-1         924        836   316.E-03
  OSSO-CUT-1         924        863   316.E-03
  OSSO-CUT-1         924        946   316.E-03
  OSSO-CUT-1         925        311   308.E-03
  OSSO-CUT-1         925        905   308.E-03
  OSSO-CUT-1         925        931   308.E-03
  OSSO-CUT-1         925        947   308.E-03
  OSSO-CUT-1         926         70   437.E-03
  OSSO-CUT-1         926         71   437.E-03
  OSSO-CUT-1         926        741   437.E-03
  OSSO-CUT-1         926        966   437.E-03
  OSSO-CUT-1         927        105   369.E-03
  OSSO-CUT-1         927        297   369.E-03
  OSSO-CUT-1         927        814   369.E-03
  OSSO-CUT-1         927        897   369.E-03
  OSSO-CUT-1         928        147   471.E-03
  OSSO-CUT-1         928        336   471.E-03
  OSSO-CUT-1         928        878   471.E-03
  OSSO-CUT-1         928        949   471.E-03
  OSSO-CUT-1         929        137   665.E-03
  OSSO-CUT-1         929        154   665.E-03
  OSSO-CUT-1         929        482   665.E-03
  OSSO-CUT-1         929        639   665.E-03
  OSSO-CUT-1         930        274   361.E-03
  OSSO-CUT-1         930        820   361.E-03
  OSSO-CUT-1         930        888   361.E-03
  OSSO-CUT-1         930        950   361.E-03
  OSSO-CUT-1         931         38   440.E-03
  OSSO-CUT-1         931        317   440.E-03
  OSSO-CUT-1         931        740   440.E-03
  OSSO-CUT-1         931        953   440.E-03
  OSSO-CUT-1         932        329   433.E-03
  OSSO-CUT-1         932        925   433.E-03
  OSSO-CUT-1         932        954   433.E-03
  OSSO-CUT-1         932        955   433.E-03
  OSSO-CUT-1         933        360   369.E-03
  OSSO-CUT-1         933        912   369.E-03
  OSSO-CUT-1         933        956   369.E-03
  OSSO-CUT-1         933       1111   369.E-03
  OSSO-CUT-1         934        933   436.E-03
  OSSO-CUT-1         934        994   436.E-03
  OSSO-CUT-1         934       1035   436.E-03
  OSSO-CUT-1         934       1102   436.E-03
  OSSO-CUT-1         935        329   405.E-03
  OSSO-CUT-1         935        341   405.E-03
  OSSO-CUT-1         935        925   405.E-03
  OSSO-CUT-1         935        959   405.E-03
  OSSO-CUT-1         936        265   441.E-03
  OSSO-CUT-1         936        926   441.E-03
  OSSO-CUT-1         936        960   441.E-03
  OSSO-CUT-1         937        315   366.E-03
  OSSO-CUT-1         937        922   366.E-03
  OSSO-CUT-1         937        923   366.E-03
  OSSO-CUT-1         937        977   366.E-03
  OSSO-CUT-1         937        981   366.E-03
  OSSO-CUT-1         938        266   385.E-03
  OSSO-CUT-1         938        274   385.E-03
  OSSO-CUT-1         938        310   385.E-03
  OSSO-CUT-1         938        962   385.E-03
  OSSO-CUT-1         939        275   358.E-03
  OSSO-CUT-1         939        288   358.E-03
  OSSO-CUT-1         939        564   358.E-03
  OSSO-CUT-1         939        963   358.E-03
  OSSO-CUT-1         940        964   429.E-03
  OSSO-CUT-1         940        979   429.E-03
  OSSO-CUT-1         940        998   429.E-03
  OSSO-CUT-1         940       1039   429.E-03
  OSSO-CUT-1         941         41   361.E-03
  OSSO-CUT-1         941        930   361.E-03
  OSSO-CUT-1         941        965   361.E-03
  OSSO-CUT-1         941        977   361.E-03
  OSSO-CUT-1         942        264   450.E-03
  OSSO-CUT-1         942        702   450.E-03
  OSSO-CUT-1         942        730   450.E-03
  OSSO-CUT-1         942        749   450.E-03
  OSSO-CUT-1         943         70   444.E-03
  OSSO-CUT-1         943        758   444.E-03
  OSSO-CUT-1         943        829   444.E-03
  OSSO-CUT-1         943        926   444.E-03
  OSSO-CUT-1         943        948   444.E-03
  OSSO-CUT-1         944        275   378.E-03
  OSSO-CUT-1         944        278   378.E-03
  OSSO-CUT-1         944        944   378.E-03
  OSSO-CUT-1         944        963   378.E-03
  OSSO-CUT-1         945         42   279.E-03
  OSSO-CUT-1         945        251   279.E-03
  OSSO-CUT-1         945        924   279.E-03
  OSSO-CUT-1         945        951   279.E-03
  OSSO-CUT-1         946        323   454.E-03
  OSSO-CUT-1         946        326   454.E-03
  OSSO-CUT-1         946        889   454.E-03
  OSSO-CUT-1         946       1061   454.E-03
  OSSO-CUT-1         947         42   273.E-03
  OSSO-CUT-1         947        314   273.E-03
  OSSO-CUT-1         947        792   273.E-03
  OSSO-CUT-1         947        968   273.E-03
  OSSO-CUT-1         948         43   211.E-03
  OSSO-CUT-1         948        314   211.E-03
  OSSO-CUT-1         948        891   211.E-03
  OSSO-CUT-1         948        942   211.E-03
  OSSO-CUT-1         949        360   345.E-03
  OSSO-CUT-1         949        880   345.E-03
  OSSO-CUT-1         949        912   345.E-03
  OSSO-CUT-1         949        934   345.E-03
  OSSO-CUT-1         950        151   567.E-03
  OSSO-CUT-1         950        857   567.E-03
  OSSO-CUT-1         950        938   567.E-03
  OSSO-CUT-1         950       1126   567.E-03
  OSSO-CUT-1         951        141   569.E-03
  OSSO-CUT-1         951        150   569.E-03
  OSSO-CUT-1         951        859   569.E-03
  OSSO-CUT-1         951        969   569.E-03
  OSSO-CUT-1         952        271   394.E-03
  OSSO-CUT-1         952        944   394.E-03
  OSSO-CUT-1         952        970   394.E-03
  OSSO-CUT-1         952       1038   394.E-03
  OSSO-CUT-1         953        105   343.E-03
  OSSO-CUT-1         953        628   343.E-03
  OSSO-CUT-1         953        939   343.E-03
  OSSO-CUT-1         953        971   343.E-03
  OSSO-CUT-1         954        147   488.E-03
  OSSO-CUT-1         954        336   488.E-03
  OSSO-CUT-1         954        886   488.E-03
  OSSO-CUT-1         954        941   488.E-03
  OSSO-CUT-1         955        105   358.E-03
  OSSO-CUT-1         955        297   358.E-03
  OSSO-CUT-1         955        939   358.E-03
  OSSO-CUT-1         955        972   358.E-03
  OSSO-CUT-1         956        361   393.E-03
  OSSO-CUT-1         956        956   393.E-03
  OSSO-CUT-1         956        973   393.E-03
  OSSO-CUT-1         956       1111   393.E-03
  OSSO-CUT-1         957         42   292.E-03
  OSSO-CUT-1         957        951   292.E-03
  OSSO-CUT-1         957        968   292.E-03
  OSSO-CUT-1         958        893   444.E-03
  OSSO-CUT-1         958        955   444.E-03
  OSSO-CUT-1         958        982   444.E-03
  OSSO-CUT-1         959         68   452.E-03
  OSSO-CUT-1         959        758   452.E-03
  OSSO-CUT-1         959        926   452.E-03
  OSSO-CUT-1         959        960   452.E-03
  OSSO-CUT-1         960        349   467.E-03
  OSSO-CUT-1         960        366   467.E-03
  OSSO-CUT-1         960        372   467.E-03
  OSSO-CUT-1         960        958   467.E-03
  OSSO-CUT-1         961        337   356.E-03
  OSSO-CUT-1         961        346   356.E-03
  OSSO-CUT-1         961        352   356.E-03
  OSSO-CUT-1         961        959   356.E-03
  OSSO-CUT-1         962        315   344.E-03
  OSSO-CUT-1         962        965   344.E-03
  OSSO-CUT-1         962        974   344.E-03
  OSSO-CUT-1         962        977   344.E-03
  OSSO-CUT-1         963        274   381.E-03
  OSSO-CUT-1         963        888   381.E-03
  OSSO-CUT-1         963        945   381.E-03
  OSSO-CUT-1         963        962   381.E-03
  OSSO-CUT-1         964        949   460.E-03
  OSSO-CUT-1         964        978   460.E-03
  OSSO-CUT-1         964        979   460.E-03
  OSSO-CUT-1         964       1124   460.E-03
  OSSO-CUT-1         965         70   436.E-03
  OSSO-CUT-1         965        948   436.E-03
  OSSO-CUT-1         965        966   436.E-03
  OSSO-CUT-1         965        980   436.E-03
  OSSO-CUT-1         966         41   378.E-03
  OSSO-CUT-1         966        930   378.E-03
  OSSO-CUT-1         966       1104   378.E-03
  OSSO-CUT-1         966       1117   378.E-03
  OSSO-CUT-1         967        323   458.E-03
  OSSO-CUT-1         967        903   458.E-03
  OSSO-CUT-1         967        983   458.E-03
  OSSO-CUT-1         967        990   458.E-03
  OSSO-CUT-1         968         43   160.E-03
  OSSO-CUT-1         968         44   160.E-03
  OSSO-CUT-1         968        891   160.E-03
  OSSO-CUT-1         968        984   160.E-03
  OSSO-CUT-1         969        148   502.E-03
  OSSO-CUT-1         969        886   502.E-03
  OSSO-CUT-1         969        941   502.E-03
  OSSO-CUT-1         969        985   502.E-03
  OSSO-CUT-1         970        333   453.E-03
  OSSO-CUT-1         970        954   453.E-03
  OSSO-CUT-1         970        955   453.E-03
  OSSO-CUT-1         970        982   453.E-03
  OSSO-CUT-1         971        278   394.E-03
  OSSO-CUT-1         971        898   394.E-03
  OSSO-CUT-1         971        944   394.E-03
  OSSO-CUT-1         971       1038   394.E-03
  OSSO-CUT-1         972        150   559.E-03
  OSSO-CUT-1         972        969   559.E-03
  OSSO-CUT-1         972        987   559.E-03
  OSSO-CUT-1         972        988   559.E-03
  OSSO-CUT-1         973        948   433.E-03
  OSSO-CUT-1         973        980   433.E-03
  OSSO-CUT-1         973       1105   433.E-03
  OSSO-CUT-1         974        333   462.E-03
  OSSO-CUT-1         974        982   462.E-03
  OSSO-CUT-1         974        990   462.E-03
  OSSO-CUT-1         974       1071   462.E-03
  OSSO-CUT-1         975        331   542.E-03
  OSSO-CUT-1         975        987   542.E-03
  OSSO-CUT-1         975        988   542.E-03
  OSSO-CUT-1         975       1023   542.E-03
  OSSO-CUT-1         976        349   448.E-03
  OSSO-CUT-1         976        372   448.E-03
  OSSO-CUT-1         976        837   448.E-03
  OSSO-CUT-1         977        339   479.E-03
  OSSO-CUT-1         977        976   479.E-03
  OSSO-CUT-1         977        994   479.E-03
  OSSO-CUT-1         977       1040   479.E-03
  OSSO-CUT-1         978        337   304.E-03
  OSSO-CUT-1         978        346   304.E-03
  OSSO-CUT-1         978        995   304.E-03
  OSSO-CUT-1         978        996   304.E-03
  OSSO-CUT-1         979        329   406.E-03
  OSSO-CUT-1         979        338   406.E-03
  OSSO-CUT-1         979        352   406.E-03
  OSSO-CUT-1         979        959   406.E-03
  OSSO-CUT-1         979       1002   406.E-03
  OSSO-CUT-1         980        330   430.E-03
  OSSO-CUT-1         980        361   430.E-03
  OSSO-CUT-1         980        973   430.E-03
  OSSO-CUT-1         980       1030   430.E-03
  OSSO-CUT-1         981        999   444.E-03
  OSSO-CUT-1         981       1004   444.E-03
  OSSO-CUT-1         981       1024   444.E-03
  OSSO-CUT-1         982        316   405.E-03
  OSSO-CUT-1         982        904   405.E-03
  OSSO-CUT-1         982       1000   405.E-03
  OSSO-CUT-1         982       1001   405.E-03
  OSSO-CUT-1         983        320   468.E-03
  OSSO-CUT-1         983        333   468.E-03
  OSSO-CUT-1         983        353   468.E-03
  OSSO-CUT-1         983        954   468.E-03
  OSSO-CUT-1         983       1003   468.E-03
  OSSO-CUT-1         984         40   412.E-03
  OSSO-CUT-1         984        146   412.E-03
  OSSO-CUT-1         984        316   412.E-03
  OSSO-CUT-1         984       1000   412.E-03
  OSSO-CUT-1         985        505   250.E-03
  OSSO-CUT-1         985        825   250.E-03
  OSSO-CUT-1         985       1006   250.E-03
  OSSO-CUT-1         985       1078   250.E-03
  OSSO-CUT-1         986        148   514.E-03
  OSSO-CUT-1         986        149   514.E-03
  OSSO-CUT-1         986        985   514.E-03
  OSSO-CUT-1         986       1037   514.E-03
  OSSO-CUT-1         987        931   327.E-03
  OSSO-CUT-1         987        947   327.E-03
  OSSO-CUT-1         987        965   327.E-03
  OSSO-CUT-1         987        974   327.E-03
  OSSO-CUT-1         988        945   399.E-03
  OSSO-CUT-1         988        962   399.E-03
  OSSO-CUT-1         988       1010   399.E-03
  OSSO-CUT-1         988       1011   399.E-03
  OSSO-CUT-1         989        546   338.E-03
  OSSO-CUT-1         989        939   338.E-03
  OSSO-CUT-1         989        971   338.E-03
  OSSO-CUT-1         989       1088   338.E-03
  OSSO-CUT-1         990        340   551.E-03
  OSSO-CUT-1         990        938   551.E-03
  OSSO-CUT-1         990       1054   551.E-03
  OSSO-CUT-1         990       1125   551.E-03
  OSSO-CUT-1         991        151   590.E-03
  OSSO-CUT-1         991       1013   590.E-03
  OSSO-CUT-1         991       1014   590.E-03
  OSSO-CUT-1         991       1126   590.E-03
  OSSO-CUT-1         992        347   357.E-03
  OSSO-CUT-1         992        956   357.E-03
  OSSO-CUT-1         992        973   357.E-03
  OSSO-CUT-1         992        997   357.E-03
  OSSO-CUT-1         993         41   373.E-03
  OSSO-CUT-1         993        977   373.E-03
  OSSO-CUT-1         993        981   373.E-03
  OSSO-CUT-1         994        266   405.E-03
  OSSO-CUT-1         994        962   405.E-03
  OSSO-CUT-1         994       1011   405.E-03
  OSSO-CUT-1         994       1045   405.E-03
  OSSO-CUT-1         995         39   421.E-03
  OSSO-CUT-1         995       1000   421.E-03
  OSSO-CUT-1         995       1001   421.E-03
  OSSO-CUT-1         995       1017   421.E-03
  OSSO-CUT-1         996        309   414.E-03
  OSSO-CUT-1         996       1008   414.E-03
  OSSO-CUT-1         996       1010   414.E-03
  OSSO-CUT-1         996       1011   414.E-03
  OSSO-CUT-1         997        343   520.E-03
  OSSO-CUT-1         997        906   520.E-03
  OSSO-CUT-1         997       1019   520.E-03
  OSSO-CUT-1         997       1020   520.E-03
  OSSO-CUT-1         997       1037   520.E-03
  OSSO-CUT-1         998        264   436.E-03
  OSSO-CUT-1         998        265   436.E-03
  OSSO-CUT-1         998        960   436.E-03
  OSSO-CUT-1         998       1021   436.E-03
  OSSO-CUT-1         999        340   527.E-03
  OSSO-CUT-1         999       1023   527.E-03
  OSSO-CUT-1         999       1050   527.E-03
  OSSO-CUT-1         999       1055   527.E-03
  OSSO-CUT-1        1000        837   419.E-03
  OSSO-CUT-1        1000        975   419.E-03
  OSSO-CUT-1        1000        992   419.E-03
  OSSO-CUT-1        1000       1114   419.E-03
  OSSO-CUT-1        1001        146   433.E-03
  OSSO-CUT-1        1001        998   433.E-03
  OSSO-CUT-1        1001       1004   433.E-03
  OSSO-CUT-1        1001       1024   433.E-03
  OSSO-CUT-1        1002        338   365.E-03
  OSSO-CUT-1        1002        352   365.E-03
  OSSO-CUT-1        1002        997   365.E-03
  OSSO-CUT-1        1002       1015   365.E-03
  OSSO-CUT-1        1003        330   445.E-03
  OSSO-CUT-1        1003        361   445.E-03
  OSSO-CUT-1        1003        957   445.E-03
  OSSO-CUT-1        1003       1068   445.E-03
  OSSO-CUT-1        1004        337   325.E-03
  OSSO-CUT-1        1004        717   325.E-03
  OSSO-CUT-1        1004        718   325.E-03
  OSSO-CUT-1        1004        995   325.E-03
  OSSO-CUT-1        1005        320   472.E-03
  OSSO-CUT-1        1005        353   472.E-03
  OSSO-CUT-1        1005       1027   472.E-03
  OSSO-CUT-1        1006         38   442.E-03
  OSSO-CUT-1        1006        317   442.E-03
  OSSO-CUT-1        1006       1028   442.E-03
  OSSO-CUT-1        1007        338   400.E-03
  OSSO-CUT-1        1007        973   400.E-03
  OSSO-CUT-1        1007        997   400.E-03
  OSSO-CUT-1        1007       1030   400.E-03
  OSSO-CUT-1        1008        347   266.E-03
  OSSO-CUT-1        1008        503   266.E-03
  OSSO-CUT-1        1008        935   266.E-03
  OSSO-CUT-1        1008       1032   266.E-03
  OSSO-CUT-1        1009        129   195.E-03
  OSSO-CUT-1        1009        156   195.E-03
  OSSO-CUT-1        1009        505   195.E-03
  OSSO-CUT-1        1009       1006   195.E-03
  OSSO-CUT-1        1010        147   476.E-03
  OSSO-CUT-1        1010        949   476.E-03
  OSSO-CUT-1        1010        978   476.E-03
  OSSO-CUT-1        1010       1034   476.E-03
  OSSO-CUT-1        1011        296   323.E-03
  OSSO-CUT-1        1011        546   323.E-03
  OSSO-CUT-1        1011        549   323.E-03
  OSSO-CUT-1        1011       1012   323.E-03
  OSSO-CUT-1        1012        339   450.E-03
  OSSO-CUT-1        1012        957   450.E-03
  OSSO-CUT-1        1012       1035   450.E-03
  OSSO-CUT-1        1012       1068   450.E-03
  OSSO-CUT-1        1013        991   539.E-03
  OSSO-CUT-1        1013       1019   539.E-03
  OSSO-CUT-1        1013       1020   539.E-03
  OSSO-CUT-1        1013       1127   539.E-03
  OSSO-CUT-1        1014        351   525.E-03
  OSSO-CUT-1        1014        828   525.E-03
  OSSO-CUT-1        1014        857   525.E-03
  OSSO-CUT-1        1014       1036   525.E-03
  OSSO-CUT-1        1014       1041   525.E-03
  OSSO-CUT-1        1015         46    67.E-03
  OSSO-CUT-1        1015        449    67.E-03
  OSSO-CUT-1        1015        513    67.E-03
  OSSO-CUT-1        1015        590    67.E-03
  OSSO-CUT-1        1016        149   526.E-03
  OSSO-CUT-1        1016       1007   526.E-03
  OSSO-CUT-1        1016       1019   526.E-03
  OSSO-CUT-1        1016       1037   526.E-03
  OSSO-CUT-1        1017        271   409.E-03
  OSSO-CUT-1        1017        986   409.E-03
  OSSO-CUT-1        1017       1018   409.E-03
  OSSO-CUT-1        1017       1038   409.E-03
  OSSO-CUT-1        1018        911   404.E-03
  OSSO-CUT-1        1018        923   404.E-03
  OSSO-CUT-1        1018        964   404.E-03
  OSSO-CUT-1        1018       1039   404.E-03
  OSSO-CUT-1        1019        353   459.E-03
  OSSO-CUT-1        1019       1002   459.E-03
  OSSO-CUT-1        1019       1026   459.E-03
  OSSO-CUT-1        1019       1027   459.E-03
  OSSO-CUT-1        1020        334   491.E-03
  OSSO-CUT-1        1020       1034   491.E-03
  OSSO-CUT-1        1020       1058   491.E-03
  OSSO-CUT-1        1020       1062   491.E-03
  OSSO-CUT-1        1020       1120   491.E-03
  OSSO-CUT-1        1021        351   502.E-03
  OSSO-CUT-1        1021        993   502.E-03
  OSSO-CUT-1        1021       1022   502.E-03
  OSSO-CUT-1        1021       1036   502.E-03
  OSSO-CUT-1        1022        349   456.E-03
  OSSO-CUT-1        1022        837   456.E-03
  OSSO-CUT-1        1022        992   456.E-03
  OSSO-CUT-1        1022        993   456.E-03
  OSSO-CUT-1        1023        502   247.E-03
  OSSO-CUT-1        1023        995   247.E-03
  OSSO-CUT-1        1023        996   247.E-03
  OSSO-CUT-1        1023       1042   247.E-03
  OSSO-CUT-1        1024         39   425.E-03
  OSSO-CUT-1        1024       1016   425.E-03
  OSSO-CUT-1        1024       1116   425.E-03
  OSSO-CUT-1        1025       1016   425.E-03
  OSSO-CUT-1        1025       1029   425.E-03
  OSSO-CUT-1        1025       1045   425.E-03
  OSSO-CUT-1        1025       1116   425.E-03
  OSSO-CUT-1        1026        330   469.E-03
  OSSO-CUT-1        1026       1026   469.E-03
  OSSO-CUT-1        1026       1030   469.E-03
  OSSO-CUT-1        1026       1046   469.E-03
  OSSO-CUT-1        1026       1108   469.E-03
  OSSO-CUT-1        1027         38   438.E-03
  OSSO-CUT-1        1027       1009   438.E-03
  OSSO-CUT-1        1027       1028   438.E-03
  OSSO-CUT-1        1027       1029   438.E-03
  OSSO-CUT-1        1027       1043   438.E-03
  OSSO-CUT-1        1028        309   423.E-03
  OSSO-CUT-1        1028        989   423.E-03
  OSSO-CUT-1        1028       1008   423.E-03
  OSSO-CUT-1        1029         32    97.E-03
  OSSO-CUT-1        1029        429    97.E-03
  OSSO-CUT-1        1029       1031    97.E-03
  OSSO-CUT-1        1029       1033    97.E-03
  OSSO-CUT-1        1030        346   339.E-03
  OSSO-CUT-1        1030        352   339.E-03
  OSSO-CUT-1        1030       1015   339.E-03
  OSSO-CUT-1        1031         44    96.E-03
  OSSO-CUT-1        1031         45    96.E-03
  OSSO-CUT-1        1031        448    96.E-03
  OSSO-CUT-1        1031        984    96.E-03
  OSSO-CUT-1        1032        503   187.E-03
  OSSO-CUT-1        1032       1031   187.E-03
  OSSO-CUT-1        1032       1032   187.E-03
  OSSO-CUT-1        1032       1033   187.E-03
  OSSO-CUT-1        1033       1046   502.E-03
  OSSO-CUT-1        1033       1047   502.E-03
  OSSO-CUT-1        1033       1065   502.E-03
  OSSO-CUT-1        1033       1108   502.E-03
  OSSO-CUT-1        1034       1026   481.E-03
  OSSO-CUT-1        1034       1027   481.E-03
  OSSO-CUT-1        1034       1046   481.E-03
  OSSO-CUT-1        1034       1048   481.E-03
  OSSO-CUT-1        1035        501   205.E-03
  OSSO-CUT-1        1035        503   205.E-03
  OSSO-CUT-1        1035        504   205.E-03
  OSSO-CUT-1        1035       1031   205.E-03
  OSSO-CUT-1        1036        149   523.E-03
  OSSO-CUT-1        1036        321   523.E-03
  OSSO-CUT-1        1036       1007   523.E-03
  OSSO-CUT-1        1036       1049   523.E-03
  OSSO-CUT-1        1037        898   406.E-03
  OSSO-CUT-1        1037        986   406.E-03
  OSSO-CUT-1        1037       1038   406.E-03
  OSSO-CUT-1        1038        366   490.E-03
  OSSO-CUT-1        1038        958   490.E-03
  OSSO-CUT-1        1038        976   490.E-03
  OSSO-CUT-1        1038       1050   490.E-03
  OSSO-CUT-1        1039        331   533.E-03
  OSSO-CUT-1        1039        987   533.E-03
  OSSO-CUT-1        1039       1066   533.E-03
  OSSO-CUT-1        1039       1067   533.E-03
  OSSO-CUT-1        1040         33   147.E-03
  OSSO-CUT-1        1040        428   147.E-03
  OSSO-CUT-1        1040        504   147.E-03
  OSSO-CUT-1        1040       1042   147.E-03
  OSSO-CUT-1        1041        334   476.E-03
  OSSO-CUT-1        1041       1063   476.E-03
  OSSO-CUT-1        1041       1069   476.E-03
  OSSO-CUT-1        1042        351   522.E-03
  OSSO-CUT-1        1042       1022   522.E-03
  OSSO-CUT-1        1042       1054   522.E-03
  OSSO-CUT-1        1042       1055   522.E-03
  OSSO-CUT-1        1043        327   452.E-03
  OSSO-CUT-1        1043       1044   452.E-03
  OSSO-CUT-1        1043       1056   452.E-03
  OSSO-CUT-1        1043       1060   452.E-03
  OSSO-CUT-1        1044       1053   492.E-03
  OSSO-CUT-1        1044       1058   492.E-03
  OSSO-CUT-1        1044       1120   492.E-03
  OSSO-CUT-1        1045        321   515.E-03
  OSSO-CUT-1        1045       1047   515.E-03
  OSSO-CUT-1        1045       1049   515.E-03
  OSSO-CUT-1        1045       1057   515.E-03
  OSSO-CUT-1        1046        346   290.E-03
  OSSO-CUT-1        1046        501   290.E-03
  OSSO-CUT-1        1046        996   290.E-03
  OSSO-CUT-1        1046       1015   290.E-03
  OSSO-CUT-1        1047        322   502.E-03
  OSSO-CUT-1        1047       1058   502.E-03
  OSSO-CUT-1        1047       1059   502.E-03
  OSSO-CUT-1        1047       1062   502.E-03
  OSSO-CUT-1        1048       1003   485.E-03
  OSSO-CUT-1        1048       1053   485.E-03
  OSSO-CUT-1        1048       1064   485.E-03
  OSSO-CUT-1        1048       1120   485.E-03
  OSSO-CUT-1        1049        332   519.E-03
  OSSO-CUT-1        1049       1047   519.E-03
  OSSO-CUT-1        1049       1049   519.E-03
  OSSO-CUT-1        1049       1065   519.E-03
  OSSO-CUT-1        1050        339   481.E-03
  OSSO-CUT-1        1050       1025   481.E-03
  OSSO-CUT-1        1050       1040   481.E-03
  OSSO-CUT-1        1050       1068   481.E-03
  OSSO-CUT-1        1051        332   530.E-03
  OSSO-CUT-1        1051       1007   530.E-03
  OSSO-CUT-1        1051       1049   530.E-03
  OSSO-CUT-1        1051       1051   530.E-03
  OSSO-CUT-1        1052        321   510.E-03
  OSSO-CUT-1        1052        322   510.E-03
  OSSO-CUT-1        1052       1057   510.E-03
  OSSO-CUT-1        1052       1059   510.E-03
  OSSO-CUT-1        1053        967   468.E-03
  OSSO-CUT-1        1053       1060   468.E-03
  OSSO-CUT-1        1053       1063   468.E-03
  OSSO-CUT-1        1053       1069   468.E-03
  OSSO-CUT-1        1054        327   459.E-03
  OSSO-CUT-1        1054        967   459.E-03
  OSSO-CUT-1        1054       1060   459.E-03
  OSSO-CUT-1        1054       1061   459.E-03
  OSSO-CUT-1        1055        322   497.E-03
  OSSO-CUT-1        1055       1053   497.E-03
  OSSO-CUT-1        1055       1058   497.E-03
  OSSO-CUT-1        1055       1070   497.E-03
  OSSO-CUT-1        1056        999   460.E-03
  OSSO-CUT-1        1056       1052   460.E-03
  OSSO-CUT-1        1056       1056   460.E-03
  OSSO-CUT-1        1056       1060   460.E-03
  OSSO-CUT-1        1056       1069   460.E-03
  OSSO-CUT-1        1057        333   474.E-03
  OSSO-CUT-1        1057       1003   474.E-03
  OSSO-CUT-1        1057       1064   474.E-03
  OSSO-CUT-1        1057       1071   474.E-03
  OSSO-CUT-1        1058        941   504.E-03
  OSSO-CUT-1        1058        985   504.E-03
  OSSO-CUT-1        1058       1059   504.E-03
  OSSO-CUT-1        1058       1062   504.E-03
  OSSO-CUT-1        1059        320   487.E-03
  OSSO-CUT-1        1059       1027   487.E-03
  OSSO-CUT-1        1059       1048   487.E-03
  OSSO-CUT-1        1059       1070   487.E-03
  OSSO-CUT-1        1060        322   501.E-03
  OSSO-CUT-1        1060       1048   501.E-03
  OSSO-CUT-1        1060       1057   501.E-03
  OSSO-CUT-1        1060       1070   501.E-03
  OSSO-CUT-1        1061        120   342.E-03
  OSSO-CUT-1        1061        582   342.E-03
  OSSO-CUT-1        1061        673   342.E-03
  OSSO-CUT-1        1061        785   342.E-03
  OSSO-CUT-1        1062        272   390.E-03
  OSSO-CUT-1        1062        747   390.E-03
  OSSO-CUT-1        1062        864   390.E-03
  OSSO-CUT-1        1062       1072   390.E-03
  OSSO-CUT-1        1063        804   251.E-03
  OSSO-CUT-1        1063        839   251.E-03
  OSSO-CUT-1        1063       1073   251.E-03
  OSSO-CUT-1        1063       1107   251.E-03
  OSSO-CUT-1        1064        300   261.E-03
  OSSO-CUT-1        1064        477   261.E-03
  OSSO-CUT-1        1064        478   261.E-03
  OSSO-CUT-1        1064        563   261.E-03
  OSSO-CUT-1        1065         60   398.E-03
  OSSO-CUT-1        1065        261   398.E-03
  OSSO-CUT-1        1065        936   398.E-03
  OSSO-CUT-1        1065       1074   398.E-03
  OSSO-CUT-1        1066         81   239.E-03
  OSSO-CUT-1        1066         82   239.E-03
  OSSO-CUT-1        1066        401   239.E-03
  OSSO-CUT-1        1066        616   239.E-03
  OSSO-CUT-1        1067        266   391.E-03
  OSSO-CUT-1        1067        310   391.E-03
  OSSO-CUT-1        1067        929   391.E-03
  OSSO-CUT-1        1067       1075   391.E-03
  OSSO-CUT-1        1068        226   101.E-03
  OSSO-CUT-1        1068        664   101.E-03
  OSSO-CUT-1        1068        691   101.E-03
  OSSO-CUT-1        1068        735   101.E-03
  OSSO-CUT-1        1069        662   322.E-03
  OSSO-CUT-1        1069        663   322.E-03
  OSSO-CUT-1        1069        670   322.E-03
  OSSO-CUT-1        1069        919   322.E-03
  OSSO-CUT-1        1070        147   491.E-03
  OSSO-CUT-1        1070        941   491.E-03
  OSSO-CUT-1        1070       1034   491.E-03
  OSSO-CUT-1        1070       1062   491.E-03
  OSSO-CUT-1        1071        176   548.E-03
  OSSO-CUT-1        1071        370   548.E-03
  OSSO-CUT-1        1071        535   548.E-03
  OSSO-CUT-1        1071        633   548.E-03
  OSSO-CUT-1        1072        219   316.E-03
  OSSO-CUT-1        1072        580   316.E-03
  OSSO-CUT-1        1072        638   316.E-03
  OSSO-CUT-1        1072        813   316.E-03
  OSSO-CUT-1        1073        181         1.
  OSSO-CUT-1        1073        182         1.
  OSSO-CUT-1        1073        441         1.
  OSSO-CUT-1        1073        528         1.
  OSSO-CUT-1        1074         28    94.E-03
  OSSO-CUT-1        1074         29    94.E-03
  OSSO-CUT-1        1074        398    94.E-03
  OSSO-CUT-1        1074        634    94.E-03
  OSSO-CUT-1        1075         54   296.E-03
  OSSO-CUT-1        1075        560   296.E-03
  OSSO-CUT-1        1075        561   296.E-03
  OSSO-CUT-1        1075        795   296.E-03
  OSSO-CUT-1        1076        161   244.E-03
  OSSO-CUT-1        1076        431   244.E-03
  OSSO-CUT-1        1076        611   244.E-03
  OSSO-CUT-1        1076        789   244.E-03
  OSSO-CUT-1        1077         72   232.E-03
  OSSO-CUT-1        1077        195   232.E-03
  OSSO-CUT-1        1077        454   232.E-03
  OSSO-CUT-1        1077        524   232.E-03
  OSSO-CUT-1        1078        520   187.E-03
  OSSO-CUT-1        1078        612   187.E-03
  OSSO-CUT-1        1078       1076   187.E-03
  OSSO-CUT-1        1079        157   281.E-03
  OSSO-CUT-1        1079        161   281.E-03
  OSSO-CUT-1        1079        507   281.E-03
  OSSO-CUT-1        1079        684   281.E-03
  OSSO-CUT-1        1080         78   158.E-03
  OSSO-CUT-1        1080        254   158.E-03
  OSSO-CUT-1        1080        512   158.E-03
  OSSO-CUT-1        1080        514   158.E-03
  OSSO-CUT-1        1081         62   612.E-03
  OSSO-CUT-1        1081        258   612.E-03
  OSSO-CUT-1        1081        465   612.E-03
  OSSO-CUT-1        1081        586   612.E-03
  OSSO-CUT-1        1082          9   749.E-03
  OSSO-CUT-1        1082        493   749.E-03
  OSSO-CUT-1        1082        642   749.E-03
  OSSO-CUT-1        1083        106   326.E-03
  OSSO-CUT-1        1083        291   326.E-03
  OSSO-CUT-1        1083        686   326.E-03
  OSSO-CUT-1        1083       1012   326.E-03
  OSSO-CUT-1        1084        687   315.E-03
  OSSO-CUT-1        1084        731   315.E-03
  OSSO-CUT-1        1084        732   315.E-03
  OSSO-CUT-1        1084       1077   315.E-03
  OSSO-CUT-1        1085        935   249.E-03
  OSSO-CUT-1        1085       1006   249.E-03
  OSSO-CUT-1        1085       1032   249.E-03
  OSSO-CUT-1        1085       1078   249.E-03
  OSSO-CUT-1        1086        261   423.E-03
  OSSO-CUT-1        1086        289   423.E-03
  OSSO-CUT-1        1086        704   423.E-03
  OSSO-CUT-1        1086       1074   423.E-03
  OSSO-CUT-1        1087        305   362.E-03
  OSSO-CUT-1        1087        707   362.E-03
  OSSO-CUT-1        1087        773   362.E-03
  OSSO-CUT-1        1087        814   362.E-03
  OSSO-CUT-1        1088        506   275.E-03
  OSSO-CUT-1        1088        684   275.E-03
  OSSO-CUT-1        1088        790   275.E-03
  OSSO-CUT-1        1088        863   275.E-03
  OSSO-CUT-1        1089        512   139.E-03
  OSSO-CUT-1        1089        608   139.E-03
  OSSO-CUT-1        1089        625   139.E-03
  OSSO-CUT-1        1089        882   139.E-03
  OSSO-CUT-1        1090         83   257.E-03
  OSSO-CUT-1        1090        202   257.E-03
  OSSO-CUT-1        1090        615   257.E-03
  OSSO-CUT-1        1090       1079   257.E-03
  OSSO-CUT-1        1091        254   132.E-03
  OSSO-CUT-1        1091        621   132.E-03
  OSSO-CUT-1        1091        623   132.E-03
  OSSO-CUT-1        1091        699   132.E-03
  OSSO-CUT-1        1092        110   421.E-03
  OSSO-CUT-1        1092        471   421.E-03
  OSSO-CUT-1        1092       1080   421.E-03
  OSSO-CUT-1        1093        158   327.E-03
  OSSO-CUT-1        1093        163   327.E-03
  OSSO-CUT-1        1093        606   327.E-03
  OSSO-CUT-1        1093        727   327.E-03
  OSSO-CUT-1        1094        306   437.E-03
  OSSO-CUT-1        1094        752   437.E-03
  OSSO-CUT-1        1094        753   437.E-03
  OSSO-CUT-1        1094       1081   437.E-03
  OSSO-CUT-1        1095        630   393.E-03
  OSSO-CUT-1        1095        675   393.E-03
  OSSO-CUT-1        1095       1082   393.E-03
  OSSO-CUT-1        1096        639   631.E-03
  OSSO-CUT-1        1096        772   631.E-03
  OSSO-CUT-1        1096       1083   631.E-03
  OSSO-CUT-1        1096       1084   631.E-03
  OSSO-CUT-1        1097        782   589.E-03
  OSSO-CUT-1        1097       1083   589.E-03
  OSSO-CUT-1        1097       1084   589.E-03
  OSSO-CUT-1        1097       1097   589.E-03
  OSSO-CUT-1        1098        627   311.E-03
  OSSO-CUT-1        1098        668   311.E-03
  OSSO-CUT-1        1098        946   311.E-03
  OSSO-CUT-1        1099        598   327.E-03
  OSSO-CUT-1        1099        720   327.E-03
  OSSO-CUT-1        1099       1091   327.E-03
  OSSO-CUT-1        1100        598   333.E-03
  OSSO-CUT-1        1100       1085   333.E-03
  OSSO-CUT-1        1100       1086   333.E-03
  OSSO-CUT-1        1100       1091   333.E-03
  OSSO-CUT-1        1101        319   399.E-03
  OSSO-CUT-1        1101        565   399.E-03
  OSSO-CUT-1        1101        721   399.E-03
  OSSO-CUT-1        1101        884   399.E-03
  OSSO-CUT-1        1102        825   290.E-03
  OSSO-CUT-1        1102        934   290.E-03
  OSSO-CUT-1        1102       1078   290.E-03
  OSSO-CUT-1        1103        365   346.E-03
  OSSO-CUT-1        1103        880   346.E-03
  OSSO-CUT-1        1103       1087   346.E-03
  OSSO-CUT-1        1103       1093   346.E-03
  OSSO-CUT-1        1104        647   457.E-03
  OSSO-CUT-1        1104        694   457.E-03
  OSSO-CUT-1        1104        758   457.E-03
  OSSO-CUT-1        1104        829   457.E-03
  OSSO-CUT-1        1105        289   429.E-03
  OSSO-CUT-1        1105        703   429.E-03
  OSSO-CUT-1        1105        739   429.E-03
  OSSO-CUT-1        1105        747   429.E-03
  OSSO-CUT-1        1106        791   350.E-03
  OSSO-CUT-1        1106        939   350.E-03
  OSSO-CUT-1        1106        972   350.E-03
  OSSO-CUT-1        1106       1088   350.E-03
  OSSO-CUT-1        1107        291   344.E-03
  OSSO-CUT-1        1107        791   344.E-03
  OSSO-CUT-1        1107       1088   344.E-03
  OSSO-CUT-1        1107       1089   344.E-03
  OSSO-CUT-1        1108        290   331.E-03
  OSSO-CUT-1        1108        686   331.E-03
  OSSO-CUT-1        1108        764   331.E-03
  OSSO-CUT-1        1108       1077   331.E-03
  OSSO-CUT-1        1109        572   324.E-03
  OSSO-CUT-1        1109        687   324.E-03
  OSSO-CUT-1        1109        797   324.E-03
  OSSO-CUT-1        1109       1090   324.E-03
  OSSO-CUT-1        1110        215   400.E-03
  OSSO-CUT-1        1110        594   400.E-03
  OSSO-CUT-1        1110        630   400.E-03
  OSSO-CUT-1        1110       1082   400.E-03
  OSSO-CUT-1        1111        378   349.E-03
  OSSO-CUT-1        1111       1085   349.E-03
  OSSO-CUT-1        1111       1086   349.E-03
  OSSO-CUT-1        1111       1092   349.E-03
  OSSO-CUT-1        1112        623   129.E-03
  OSSO-CUT-1        1112        698   129.E-03
  OSSO-CUT-1        1112        699   129.E-03
  OSSO-CUT-1        1113        202   271.E-03
  OSSO-CUT-1        1113        614   271.E-03
  OSSO-CUT-1        1113       1079   271.E-03
  OSSO-CUT-1        1114        348   380.E-03
  OSSO-CUT-1        1114        365   380.E-03
  OSSO-CUT-1        1114        862   380.E-03
  OSSO-CUT-1        1114       1093   380.E-03
  OSSO-CUT-1        1115        293   441.E-03
  OSSO-CUT-1        1115        831   441.E-03
  OSSO-CUT-1        1115       1081   441.E-03
  OSSO-CUT-1        1115       1101   441.E-03
  OSSO-CUT-1        1116        285   137.E-03
  OSSO-CUT-1        1116        286   137.E-03
  OSSO-CUT-1        1116        566   137.E-03
  OSSO-CUT-1        1116        661   137.E-03
  OSSO-CUT-1        1117        566   160.E-03
  OSSO-CUT-1        1117        658   160.E-03
  OSSO-CUT-1        1117        759   160.E-03
  OSSO-CUT-1        1117       1094   160.E-03
  OSSO-CUT-1        1118        240   298.E-03
  OSSO-CUT-1        1118        609   298.E-03
  OSSO-CUT-1        1118        610   298.E-03
  OSSO-CUT-1        1118       1073   298.E-03
  OSSO-CUT-1        1119          2   305.E-03
  OSSO-CUT-1        1119        221   305.E-03
  OSSO-CUT-1        1119        579   305.E-03
  OSSO-CUT-1        1119        594   305.E-03
  OSSO-CUT-1        1120        379   352.E-03
  OSSO-CUT-1        1120        719   352.E-03
  OSSO-CUT-1        1120        727   352.E-03
  OSSO-CUT-1        1120       1092   352.E-03
  OSSO-CUT-1        1121        199   345.E-03
  OSSO-CUT-1        1121        570   345.E-03
  OSSO-CUT-1        1121        666   345.E-03
  OSSO-CUT-1        1121        709   345.E-03
  OSSO-CUT-1        1122        199   330.E-03
  OSSO-CUT-1        1122        677   330.E-03
  OSSO-CUT-1        1122        708   330.E-03
  OSSO-CUT-1        1122        709   330.E-03
  OSSO-CUT-1        1123        817   127.E-03
  OSSO-CUT-1        1123        870   127.E-03
  OSSO-CUT-1        1123       1110   127.E-03
  OSSO-CUT-1        1124        314   240.E-03
  OSSO-CUT-1        1124        792   240.E-03
  OSSO-CUT-1        1124        890   240.E-03
  OSSO-CUT-1        1124        891   240.E-03
  OSSO-CUT-1        1125        713   209.E-03
  OSSO-CUT-1        1125        714   209.E-03
  OSSO-CUT-1        1125        853   209.E-03
  OSSO-CUT-1        1125        854   209.E-03
  OSSO-CUT-1        1126        277   372.E-03
  OSSO-CUT-1        1126        849   372.E-03
  OSSO-CUT-1        1126        864   372.E-03
  OSSO-CUT-1        1126       1072   372.E-03
  OSSO-CUT-1        1127        297   380.E-03
  OSSO-CUT-1        1127        897   380.E-03
  OSSO-CUT-1        1127        940   380.E-03
  OSSO-CUT-1        1128        791   365.E-03
  OSSO-CUT-1        1128        866   365.E-03
  OSSO-CUT-1        1128        908   365.E-03
  OSSO-CUT-1        1128        972   365.E-03
  OSSO-CUT-1        1129        290   353.E-03
  OSSO-CUT-1        1129        295   353.E-03
  OSSO-CUT-1        1129        909   353.E-03
  OSSO-CUT-1        1129       1089   353.E-03
  OSSO-CUT-1        1130        764   336.E-03
  OSSO-CUT-1        1130        797   336.E-03
  OSSO-CUT-1        1130       1099   336.E-03
  OSSO-CUT-1        1131         59   340.E-03
  OSSO-CUT-1        1131        276   340.E-03
  OSSO-CUT-1        1131        840   340.E-03
  OSSO-CUT-1        1131       1090   340.E-03
  OSSO-CUT-1        1132        848   356.E-03
  OSSO-CUT-1        1132        892   356.E-03
  OSSO-CUT-1        1132        918   356.E-03
  OSSO-CUT-1        1132        920   356.E-03
  OSSO-CUT-1        1133        706   226.E-03
  OSSO-CUT-1        1133        760   226.E-03
  OSSO-CUT-1        1133        804   226.E-03
  OSSO-CUT-1        1133        839   226.E-03
  OSSO-CUT-1        1134        852   108.E-03
  OSSO-CUT-1        1134        896   108.E-03
  OSSO-CUT-1        1134        927   108.E-03
  OSSO-CUT-1        1134       1095   108.E-03
  OSSO-CUT-1        1135        815   125.E-03
  OSSO-CUT-1        1135        852   125.E-03
  OSSO-CUT-1        1135       1095   125.E-03
  OSSO-CUT-1        1135       1096   125.E-03
  OSSO-CUT-1        1136        293   425.E-03
  OSSO-CUT-1        1136        737   425.E-03
  OSSO-CUT-1        1136        869   425.E-03
  OSSO-CUT-1        1136        885   425.E-03
  OSSO-CUT-1        1137        176   547.E-03
  OSSO-CUT-1        1137        633   547.E-03
  OSSO-CUT-1        1137        648   547.E-03
  OSSO-CUT-1        1137        921   547.E-03
  OSSO-CUT-1        1138        772   677.E-03
  OSSO-CUT-1        1138        784   677.E-03
  OSSO-CUT-1        1138        800   677.E-03
  OSSO-CUT-1        1138        860   677.E-03
  OSSO-CUT-1        1139        751   596.E-03
  OSSO-CUT-1        1139        782   596.E-03
  OSSO-CUT-1        1139        914   596.E-03
  OSSO-CUT-1        1139       1083   596.E-03
  OSSO-CUT-1        1140        759   186.E-03
  OSSO-CUT-1        1140        762   186.E-03
  OSSO-CUT-1        1140       1094   186.E-03
  OSSO-CUT-1        1141        348   411.E-03
  OSSO-CUT-1        1141        933   411.E-03
  OSSO-CUT-1        1141       1093   411.E-03
  OSSO-CUT-1        1141       1102   411.E-03
  OSSO-CUT-1        1142        726   332.E-03
  OSSO-CUT-1        1142        946   332.E-03
  OSSO-CUT-1        1142       1086   332.E-03
  OSSO-CUT-1        1142       1091   332.E-03
  OSSO-CUT-1        1143        782   560.E-03
  OSSO-CUT-1        1143       1097   560.E-03
  OSSO-CUT-1        1143       1098   560.E-03
  OSSO-CUT-1        1144        751   558.E-03
  OSSO-CUT-1        1144        782   558.E-03
  OSSO-CUT-1        1144        900   558.E-03
  OSSO-CUT-1        1144       1098   558.E-03
  OSSO-CUT-1        1145        268   346.E-03
  OSSO-CUT-1        1145        806   346.E-03
  OSSO-CUT-1        1145        823   346.E-03
  OSSO-CUT-1        1145        858   346.E-03
  OSSO-CUT-1        1146        904   397.E-03
  OSSO-CUT-1        1146        929   397.E-03
  OSSO-CUT-1        1146       1001   397.E-03
  OSSO-CUT-1        1146       1075   397.E-03
  OSSO-CUT-1        1147        907   365.E-03
  OSSO-CUT-1        1147        909   365.E-03
  OSSO-CUT-1        1147        910   365.E-03
  OSSO-CUT-1        1148        251   258.E-03
  OSSO-CUT-1        1148        842   258.E-03
  OSSO-CUT-1        1148        924   258.E-03
  OSSO-CUT-1        1148        952   258.E-03
  OSSO-CUT-1        1149        233   132.E-03
  OSSO-CUT-1        1149        916   132.E-03
  OSSO-CUT-1        1149       1100   132.E-03
  OSSO-CUT-1        1149       1110   132.E-03
  OSSO-CUT-1        1150        348   441.E-03
  OSSO-CUT-1        1150        366   441.E-03
  OSSO-CUT-1        1150        372   441.E-03
  OSSO-CUT-1        1150       1102   441.E-03
  OSSO-CUT-1        1151         71   436.E-03
  OSSO-CUT-1        1151        953   436.E-03
  OSSO-CUT-1        1151        966   436.E-03
  OSSO-CUT-1        1151       1113   436.E-03
  OSSO-CUT-1        1152        250   227.E-03
  OSSO-CUT-1        1152        803   227.E-03
  OSSO-CUT-1        1152       1109   227.E-03
  OSSO-CUT-1        1153        272   379.E-03
  OSSO-CUT-1        1153        273   379.E-03
  OSSO-CUT-1        1153        848   379.E-03
  OSSO-CUT-1        1153        864   379.E-03
  OSSO-CUT-1        1154        272   394.E-03
  OSSO-CUT-1        1154        273   394.E-03
  OSSO-CUT-1        1154       1103   394.E-03
  OSSO-CUT-1        1155        651   682.E-03
  OSSO-CUT-1        1155        722   682.E-03
  OSSO-CUT-1        1155        832   682.E-03
  OSSO-CUT-1        1155        844   682.E-03
  OSSO-CUT-1        1156        292   390.E-03
  OSSO-CUT-1        1156        865   390.E-03
  OSSO-CUT-1        1156        908   390.E-03
  OSSO-CUT-1        1156        940   390.E-03
  OSSO-CUT-1        1157        286   182.E-03
  OSSO-CUT-1        1157        660   182.E-03
  OSSO-CUT-1        1157        763   182.E-03
  OSSO-CUT-1        1157        803   182.E-03
  OSSO-CUT-1        1158        267   387.E-03
  OSSO-CUT-1        1158        316   387.E-03
  OSSO-CUT-1        1158        904   387.E-03
  OSSO-CUT-1        1158       1104   387.E-03
  OSSO-CUT-1        1159        359   557.E-03
  OSSO-CUT-1        1159        751   557.E-03
  OSSO-CUT-1        1159        779   557.E-03
  OSSO-CUT-1        1159        900   557.E-03
  OSSO-CUT-1        1160        366   464.E-03
  OSSO-CUT-1        1160        976   464.E-03
  OSSO-CUT-1        1160        994   464.E-03
  OSSO-CUT-1        1160       1102   464.E-03
  OSSO-CUT-1        1161        265   436.E-03
  OSSO-CUT-1        1161        926   436.E-03
  OSSO-CUT-1        1161        948   436.E-03
  OSSO-CUT-1        1161       1105   436.E-03
  OSSO-CUT-1        1162        266   409.E-03
  OSSO-CUT-1        1162       1016   409.E-03
  OSSO-CUT-1        1162       1045   409.E-03
  OSSO-CUT-1        1162       1075   409.E-03
  OSSO-CUT-1        1163        924   236.E-03
  OSSO-CUT-1        1163        942   236.E-03
  OSSO-CUT-1        1163        952   236.E-03
  OSSO-CUT-1        1164        792   302.E-03
  OSSO-CUT-1        1164        961   302.E-03
  OSSO-CUT-1        1164        968   302.E-03
  OSSO-CUT-1        1164       1106   302.E-03
  OSSO-CUT-1        1165        200   306.E-03
  OSSO-CUT-1        1165        666   306.E-03
  OSSO-CUT-1        1165        672   306.E-03
  OSSO-CUT-1        1165        810   306.E-03
  OSSO-CUT-1        1166        315   319.E-03
  OSSO-CUT-1        1166        951   319.E-03
  OSSO-CUT-1        1166        961   319.E-03
  OSSO-CUT-1        1166        968   319.E-03
  OSSO-CUT-1        1166        974   319.E-03
  OSSO-CUT-1        1167        180   345.E-03
  OSSO-CUT-1        1167        766   345.E-03
  OSSO-CUT-1        1167        834   345.E-03
  OSSO-CUT-1        1168        839   230.E-03
  OSSO-CUT-1        1168        871   230.E-03
  OSSO-CUT-1        1168       1107   230.E-03
  OSSO-CUT-1        1169         26   178.E-03
  OSSO-CUT-1        1169        845   178.E-03
  OSSO-CUT-1        1169        895   178.E-03
  OSSO-CUT-1        1169       1096   178.E-03
  OSSO-CUT-1        1170        361   417.E-03
  OSSO-CUT-1        1170        957   417.E-03
  OSSO-CUT-1        1170       1111   417.E-03
  OSSO-CUT-1        1171        330   477.E-03
  OSSO-CUT-1        1171       1025   477.E-03
  OSSO-CUT-1        1171       1068   477.E-03
  OSSO-CUT-1        1171       1108   477.E-03
  OSSO-CUT-1        1172       1025   505.E-03
  OSSO-CUT-1        1172       1065   505.E-03
  OSSO-CUT-1        1172       1067   505.E-03
  OSSO-CUT-1        1172       1108   505.E-03
  OSSO-CUT-1        1173        838   211.E-03
  OSSO-CUT-1        1173        868   211.E-03
  OSSO-CUT-1        1173        901   211.E-03
  OSSO-CUT-1        1173        937   211.E-03
  OSSO-CUT-1        1174        233   157.E-03
  OSSO-CUT-1        1174        867   157.E-03
  OSSO-CUT-1        1174        901   157.E-03
  OSSO-CUT-1        1174       1100   157.E-03
  OSSO-CUT-1        1175        838   172.E-03
  OSSO-CUT-1        1175        867   172.E-03
  OSSO-CUT-1        1175        901   172.E-03
  OSSO-CUT-1        1175        943   172.E-03
  OSSO-CUT-1        1176        131   383.E-03
  OSSO-CUT-1        1176        843   383.E-03
  OSSO-CUT-1        1176       1112   383.E-03
  OSSO-CUT-1        1177        357   410.E-03
  OSSO-CUT-1        1177        843   410.E-03
  OSSO-CUT-1        1177        856   410.E-03
  OSSO-CUT-1        1177       1112   410.E-03
  OSSO-CUT-1        1178        357   420.E-03
  OSSO-CUT-1        1178        992   420.E-03
  OSSO-CUT-1        1178       1112   420.E-03
  OSSO-CUT-1        1178       1114   420.E-03
  OSSO-CUT-1        1179        240   266.E-03
  OSSO-CUT-1        1179        768   266.E-03
  OSSO-CUT-1        1179       1073   266.E-03
  OSSO-CUT-1        1179       1107   266.E-03
  OSSO-CUT-1        1180         40   395.E-03
  OSSO-CUT-1        1180        316   395.E-03
  OSSO-CUT-1        1180       1104   395.E-03
  OSSO-CUT-1        1180       1117   395.E-03
  OSSO-CUT-1        1181         38   436.E-03
  OSSO-CUT-1        1181        953   436.E-03
  OSSO-CUT-1        1181       1009   436.E-03
  OSSO-CUT-1        1181       1113   436.E-03
  OSSO-CUT-1        1182        989   429.E-03
  OSSO-CUT-1        1182       1008   429.E-03
  OSSO-CUT-1        1182       1009   429.E-03
  OSSO-CUT-1        1182       1113   429.E-03
  OSSO-CUT-1        1183        309   425.E-03
  OSSO-CUT-1        1183        980   425.E-03
  OSSO-CUT-1        1183        989   425.E-03
  OSSO-CUT-1        1183       1018   425.E-03
  OSSO-CUT-1        1183       1105   425.E-03
  OSSO-CUT-1        1184        350   418.E-03
  OSSO-CUT-1        1184        777   418.E-03
  OSSO-CUT-1        1184        826   418.E-03
  OSSO-CUT-1        1184        856   418.E-03
  OSSO-CUT-1        1185        315   341.E-03
  OSSO-CUT-1        1185        922   341.E-03
  OSSO-CUT-1        1185        961   341.E-03
  OSSO-CUT-1        1186        271   411.E-03
  OSSO-CUT-1        1186        309   411.E-03
  OSSO-CUT-1        1186       1010   411.E-03
  OSSO-CUT-1        1186       1018   411.E-03
  OSSO-CUT-1        1187        349   485.E-03
  OSSO-CUT-1        1187        958   485.E-03
  OSSO-CUT-1        1187        993   485.E-03
  OSSO-CUT-1        1187       1022   485.E-03
  OSSO-CUT-1        1188        769   196.E-03
  OSSO-CUT-1        1188        809   196.E-03
  OSSO-CUT-1        1188        846   196.E-03
  OSSO-CUT-1        1188        928   196.E-03
  OSSO-CUT-1        1189        152   612.E-03
  OSSO-CUT-1        1189        913   612.E-03
  OSSO-CUT-1        1189       1013   612.E-03
  OSSO-CUT-1        1189       1014   612.E-03
  OSSO-CUT-1        1190        200   263.E-03
  OSSO-CUT-1        1190        937   263.E-03
  OSSO-CUT-1        1190       1115   263.E-03
  OSSO-CUT-1        1191        767   248.E-03
  OSSO-CUT-1        1191        868   248.E-03
  OSSO-CUT-1        1191        937   248.E-03
  OSSO-CUT-1        1191       1115   248.E-03
  OSSO-CUT-1        1192         39   437.E-03
  OSSO-CUT-1        1192       1017   437.E-03
  OSSO-CUT-1        1192       1044   437.E-03
  OSSO-CUT-1        1192       1056   437.E-03
  OSSO-CUT-1        1192       1116   437.E-03
  OSSO-CUT-1        1193        776   476.E-03
  OSSO-CUT-1        1193        778   476.E-03
  OSSO-CUT-1        1193        826   476.E-03
  OSSO-CUT-1        1193        899   476.E-03
  OSSO-CUT-1        1193       1041   476.E-03
  OSSO-CUT-1        1194        145   422.E-03
  OSSO-CUT-1        1194        744   422.E-03
  OSSO-CUT-1        1194        874   422.E-03
  OSSO-CUT-1        1194        877   422.E-03
  OSSO-CUT-1        1195        332   524.E-03
  OSSO-CUT-1        1195       1065   524.E-03
  OSSO-CUT-1        1195       1066   524.E-03
  OSSO-CUT-1        1195       1067   524.E-03
  OSSO-CUT-1        1196        339   455.E-03
  OSSO-CUT-1        1196        994   455.E-03
  OSSO-CUT-1        1196       1035   455.E-03
  OSSO-CUT-1        1197        323   461.E-03
  OSSO-CUT-1        1197        967   461.E-03
  OSSO-CUT-1        1197        983   461.E-03
  OSSO-CUT-1        1197       1061   461.E-03
  OSSO-CUT-1        1198        146   428.E-03
  OSSO-CUT-1        1198       1000   428.E-03
  OSSO-CUT-1        1198       1004   428.E-03
  OSSO-CUT-1        1198       1017   428.E-03
  OSSO-CUT-1        1199         24   215.E-03
  OSSO-CUT-1        1199        769   215.E-03
  OSSO-CUT-1        1199        846   215.E-03
  OSSO-CUT-1        1200         41   386.E-03
  OSSO-CUT-1        1200        981   386.E-03
  OSSO-CUT-1        1200       1005   386.E-03
  OSSO-CUT-1        1200       1117   386.E-03
  OSSO-CUT-1        1201        265   424.E-03
  OSSO-CUT-1        1201        986   424.E-03
  OSSO-CUT-1        1201       1018   424.E-03
  OSSO-CUT-1        1201       1021   424.E-03
  OSSO-CUT-1        1201       1105   424.E-03
  OSSO-CUT-1        1202        983   468.E-03
  OSSO-CUT-1        1202        990   468.E-03
  OSSO-CUT-1        1202       1071   468.E-03
  OSSO-CUT-1        1202       1119   468.E-03
  OSSO-CUT-1        1203        368   626.E-03
  OSSO-CUT-1        1203        876   626.E-03
  OSSO-CUT-1        1203        881   626.E-03
  OSSO-CUT-1        1203       1118   626.E-03
  OSSO-CUT-1        1204       1029   437.E-03
  OSSO-CUT-1        1204       1043   437.E-03
  OSSO-CUT-1        1204       1044   437.E-03
  OSSO-CUT-1        1204       1116   437.E-03
  OSSO-CUT-1        1205        340   534.E-03
  OSSO-CUT-1        1205       1054   534.E-03
  OSSO-CUT-1        1205       1055   534.E-03
  OSSO-CUT-1        1206        778   490.E-03
  OSSO-CUT-1        1206       1036   490.E-03
  OSSO-CUT-1        1206       1041   490.E-03
  OSSO-CUT-1        1207        151   579.E-03
  OSSO-CUT-1        1207        374   579.E-03
  OSSO-CUT-1        1207       1013   579.E-03
  OSSO-CUT-1        1208        332   534.E-03
  OSSO-CUT-1        1208       1051   534.E-03
  OSSO-CUT-1        1208       1066   534.E-03
  OSSO-CUT-1        1209         40   415.E-03
  OSSO-CUT-1        1209        146   415.E-03
  OSSO-CUT-1        1209        998   415.E-03
  OSSO-CUT-1        1209       1005   415.E-03
  OSSO-CUT-1        1209       1039   415.E-03
  OSSO-CUT-1        1210         40   399.E-03
  OSSO-CUT-1        1210       1005   399.E-03
  OSSO-CUT-1        1210       1117   399.E-03
  OSSO-CUT-1        1211        999   455.E-03
  OSSO-CUT-1        1211       1024   455.E-03
  OSSO-CUT-1        1211       1052   455.E-03
  OSSO-CUT-1        1211       1124   455.E-03
  OSSO-CUT-1        1212       1064   475.E-03
  OSSO-CUT-1        1212       1071   475.E-03
  OSSO-CUT-1        1212       1119   475.E-03
  OSSO-CUT-1        1213        334   481.E-03
  OSSO-CUT-1        1213       1063   481.E-03
  OSSO-CUT-1        1213       1064   481.E-03
  OSSO-CUT-1        1213       1119   481.E-03
  OSSO-CUT-1        1213       1120   481.E-03
  OSSO-CUT-1        1214        327   447.E-03
  OSSO-CUT-1        1214       1043   447.E-03
  OSSO-CUT-1        1214       1044   447.E-03
  OSSO-CUT-1        1215        335   439.E-03
  OSSO-CUT-1        1215        808   439.E-03
  OSSO-CUT-1        1215       1121   439.E-03
  OSSO-CUT-1        1216        335   466.E-03
  OSSO-CUT-1        1216        788   466.E-03
  OSSO-CUT-1        1216        850   466.E-03
  OSSO-CUT-1        1216        875   466.E-03
  OSSO-CUT-1        1216       1121   466.E-03
  OSSO-CUT-1        1217        351   543.E-03
  OSSO-CUT-1        1217        857   543.E-03
  OSSO-CUT-1        1217        938   543.E-03
  OSSO-CUT-1        1217       1054   543.E-03
  OSSO-CUT-1        1218        331   513.E-03
  OSSO-CUT-1        1218        976   513.E-03
  OSSO-CUT-1        1218       1023   513.E-03
  OSSO-CUT-1        1218       1040   513.E-03
  OSSO-CUT-1        1218       1050   513.E-03
  OSSO-CUT-1        1219        991   538.E-03
  OSSO-CUT-1        1219       1007   538.E-03
  OSSO-CUT-1        1219       1019   538.E-03
  OSSO-CUT-1        1219       1051   538.E-03
  OSSO-CUT-1        1220        141   584.E-03
  OSSO-CUT-1        1220        150   584.E-03
  OSSO-CUT-1        1220       1122   584.E-03
  OSSO-CUT-1        1220       1123   584.E-03
  OSSO-CUT-1        1221        978   464.E-03
  OSSO-CUT-1        1221       1052   464.E-03
  OSSO-CUT-1        1221       1124   464.E-03
  OSSO-CUT-1        1222        894   573.E-03
  OSSO-CUT-1        1222        938   573.E-03
  OSSO-CUT-1        1222       1125   573.E-03
  OSSO-CUT-1        1222       1126   573.E-03
  OSSO-CUT-1        1223        141   593.E-03
  OSSO-CUT-1        1223        362   593.E-03
  OSSO-CUT-1        1223        367   593.E-03
  OSSO-CUT-1        1223       1123   593.E-03
  OSSO-CUT-1        1224        775   555.E-03
  OSSO-CUT-1        1224        841   555.E-03
  OSSO-CUT-1        1224        859   555.E-03
  OSSO-CUT-1        1224       1127   555.E-03
  OSSO-CUT-1        1225        148   506.E-03
  OSSO-CUT-1        1225        343   506.E-03
  OSSO-CUT-1        1225        887   506.E-03
  OSSO-CUT-1        1225       1037   506.E-03
  OSSO-CUT-1        1226        368   599.E-03
  OSSO-CUT-1        1226        894   599.E-03
  OSSO-CUT-1        1226       1118   599.E-03
  OSSO-CUT-1        1226       1122   599.E-03
  OSSO-CUT-1        1227        979   445.E-03
  OSSO-CUT-1        1227        998   445.E-03
  OSSO-CUT-1        1227       1024   445.E-03
  OSSO-CUT-1        1227       1124   445.E-03
  OSSO-CUT-1        1228        859   555.E-03
  OSSO-CUT-1        1228        969   555.E-03
  OSSO-CUT-1        1228        991   555.E-03
  OSSO-CUT-1        1228       1127   555.E-03
  OSSO-CUT-1        1229          1   514.E-03
  OSSO-CUT-1        1229        459   514.E-03
  OSSO-CUT-1        1230          1   463.E-03
  OSSO-CUT-1        1230         19   463.E-03
  OSSO-CUT-1        1231          1   421.E-03
  OSSO-CUT-1        1231        674   421.E-03
  OSSO-CUT-1        1232          1   469.E-03
  OSSO-CUT-1        1232        643   469.E-03
  OSSO-CUT-1        1233          2   234.E-03
  OSSO-CUT-1        1233        854   234.E-03
  OSSO-CUT-1        1234          2   285.E-03
  OSSO-CUT-1        1234        579   285.E-03
  OSSO-CUT-1        1235          2   275.E-03
  OSSO-CUT-1        1235        221   275.E-03
  OSSO-CUT-1        1236          2   224.E-03
  OSSO-CUT-1        1236        748   224.E-03
  OSSO-CUT-1        1237          3   306.E-03
  OSSO-CUT-1        1237        743   306.E-03
  OSSO-CUT-1        1238          3   255.E-03
  OSSO-CUT-1        1238        845   255.E-03
  OSSO-CUT-1        1239          3   234.E-03
  OSSO-CUT-1        1239        809   234.E-03
  OSSO-CUT-1        1240          3   284.E-03
  OSSO-CUT-1        1240         25   284.E-03
  OSSO-CUT-1        1241          4   465.E-03
  OSSO-CUT-1        1241          7   465.E-03
  OSSO-CUT-1        1242          4   445.E-03
  OSSO-CUT-1        1242        222   445.E-03
  OSSO-CUT-1        1243          4   395.E-03
  OSSO-CUT-1        1243        671   395.E-03
  OSSO-CUT-1        1244          4   412.E-03
  OSSO-CUT-1        1244        697   412.E-03
  OSSO-CUT-1        1245          5   414.E-03
  OSSO-CUT-1        1245        571   414.E-03
  OSSO-CUT-1        1246          5   447.E-03
  OSSO-CUT-1        1246        456   447.E-03
  OSSO-CUT-1        1247          5   435.E-03
  OSSO-CUT-1        1247        510   435.E-03
  OSSO-CUT-1        1248          5   402.E-03
  OSSO-CUT-1        1248        570   402.E-03
  OSSO-CUT-1        1249          6   504.E-03
  OSSO-CUT-1        1249          7   504.E-03
  OSSO-CUT-1        1250          6   486.E-03
  OSSO-CUT-1        1250        511   486.E-03
  OSSO-CUT-1        1251          6   491.E-03
  OSSO-CUT-1        1252          6   510.E-03
  OSSO-CUT-1        1252        457   510.E-03
  OSSO-CUT-1        1253          7   504.E-03
  OSSO-CUT-1        1253        497   504.E-03
  OSSO-CUT-1        1254          7   463.E-03
  OSSO-CUT-1        1254        510   463.E-03
  OSSO-CUT-1        1255          8   670.E-03
  OSSO-CUT-1        1255        493   670.E-03
  OSSO-CUT-1        1256          8   589.E-03
  OSSO-CUT-1        1256        223   589.E-03
  OSSO-CUT-1        1257          8   567.E-03
  OSSO-CUT-1        1257        497   567.E-03
  OSSO-CUT-1        1258          8   655.E-03
  OSSO-CUT-1        1258        458   655.E-03
  OSSO-CUT-1        1259          9   750.E-03
  OSSO-CUT-1        1259        641   750.E-03
  OSSO-CUT-1        1260          9   663.E-03
  OSSO-CUT-1        1260        642   663.E-03
  OSSO-CUT-1        1261          9   810.E-03
  OSSO-CUT-1        1261        493   810.E-03
  OSSO-CUT-1        1262          9   992.E-03
  OSSO-CUT-1        1262        210   992.E-03
  OSSO-CUT-1        1263         10   589.E-03
  OSSO-CUT-1        1263        580   589.E-03
  OSSO-CUT-1        1264         10   767.E-03
  OSSO-CUT-1        1264        214   767.E-03
  OSSO-CUT-1        1265         10   607.E-03
  OSSO-CUT-1        1265        213   607.E-03
  OSSO-CUT-1        1266         10   474.E-03
  OSSO-CUT-1        1266        218   474.E-03
  OSSO-CUT-1        1267         11   620.E-03
  OSSO-CUT-1        1267         12   620.E-03
  OSSO-CUT-1        1268         11   609.E-03
  OSSO-CUT-1        1268        492   609.E-03
  OSSO-CUT-1        1269         11   699.E-03
  OSSO-CUT-1        1269        491   699.E-03
  OSSO-CUT-1        1270         11   716.E-03
  OSSO-CUT-1        1271         12   559.E-03
  OSSO-CUT-1        1271        459   559.E-03
  OSSO-CUT-1        1272         12   545.E-03
  OSSO-CUT-1        1272        593   545.E-03
  OSSO-CUT-1        1273         12   636.E-03
  OSSO-CUT-1        1274         13   538.E-03
  OSSO-CUT-1        1274        460   538.E-03
  OSSO-CUT-1        1275         13   504.E-03
  OSSO-CUT-1        1275         19   504.E-03
  OSSO-CUT-1        1276         13   542.E-03
  OSSO-CUT-1        1276        459   542.E-03
  OSSO-CUT-1        1277         13   571.E-03
  OSSO-CUT-1        1278         14   265.E-03
  OSSO-CUT-1        1278        473   265.E-03
  OSSO-CUT-1        1279         14   301.E-03
  OSSO-CUT-1        1279        393   301.E-03
  OSSO-CUT-1        1280         14   294.E-03
  OSSO-CUT-1        1281         14   258.E-03
  OSSO-CUT-1        1281        394   258.E-03
  OSSO-CUT-1        1282         15   185.E-03
  OSSO-CUT-1        1282        395   185.E-03
  OSSO-CUT-1        1283         15   190.E-03
  OSSO-CUT-1        1284         15   199.E-03
  OSSO-CUT-1        1284         16   199.E-03
  OSSO-CUT-1        1285         15   198.E-03
  OSSO-CUT-1        1285         18   198.E-03
  OSSO-CUT-1        1286         16   196.E-03
  OSSO-CUT-1        1286        468   196.E-03
  OSSO-CUT-1        1287         16   201.E-03
  OSSO-CUT-1        1288         16   213.E-03
  OSSO-CUT-1        1288        472   213.E-03
  OSSO-CUT-1        1289         17   292.E-03
  OSSO-CUT-1        1289        705   292.E-03
  OSSO-CUT-1        1290         17   265.E-03
  OSSO-CUT-1        1290        635   265.E-03
  OSSO-CUT-1        1291         17   302.E-03
  OSSO-CUT-1        1291        221   302.E-03
  OSSO-CUT-1        1292         17   329.E-03
  OSSO-CUT-1        1292        630   329.E-03
  OSSO-CUT-1        1293         18   211.E-03
  OSSO-CUT-1        1293        468   211.E-03
  OSSO-CUT-1        1294         18   234.E-03
  OSSO-CUT-1        1294        473   234.E-03
  OSSO-CUT-1        1295         18   219.E-03
  OSSO-CUT-1        1295        394   219.E-03
  OSSO-CUT-1        1296         19   445.E-03
  OSSO-CUT-1        1296        466   445.E-03
  OSSO-CUT-1        1297         19   409.E-03
  OSSO-CUT-1        1297        568   409.E-03
  OSSO-CUT-1        1298         20   102.E-03
  OSSO-CUT-1        1298         21   102.E-03
  OSSO-CUT-1        1299         20    86.E-03
  OSSO-CUT-1        1299        225    86.E-03
  OSSO-CUT-1        1300         20    85.E-03
  OSSO-CUT-1        1300        634    85.E-03
  OSSO-CUT-1        1301         20   100.E-03
  OSSO-CUT-1        1301        476   100.E-03
  OSSO-CUT-1        1302         21   105.E-03
  OSSO-CUT-1        1302        540   105.E-03
  OSSO-CUT-1        1303         21   118.E-03
  OSSO-CUT-1        1303         31   118.E-03
  OSSO-CUT-1        1304         21   122.E-03
  OSSO-CUT-1        1305         22    61.E-03
  OSSO-CUT-1        1305        729    61.E-03
  OSSO-CUT-1        1306         22    60.E-03
  OSSO-CUT-1        1306        765    60.E-03
  OSSO-CUT-1        1307         22    60.E-03
  OSSO-CUT-1        1307        728    60.E-03
  OSSO-CUT-1        1308         22    60.E-03
  OSSO-CUT-1        1308        676    60.E-03
  OSSO-CUT-1        1309         23    68.E-03
  OSSO-CUT-1        1309        226    68.E-03
  OSSO-CUT-1        1310         23    64.E-03
  OSSO-CUT-1        1310        765    64.E-03
  OSSO-CUT-1        1311         23    71.E-03
  OSSO-CUT-1        1311        805    71.E-03
  OSSO-CUT-1        1312         23    76.E-03
  OSSO-CUT-1        1312        228    76.E-03
  OSSO-CUT-1        1313         24   226.E-03
  OSSO-CUT-1        1313        847   226.E-03
  OSSO-CUT-1        1314         24   256.E-03
  OSSO-CUT-1        1314        770   256.E-03
  OSSO-CUT-1        1315         24   236.E-03
  OSSO-CUT-1        1315        769   236.E-03
  OSSO-CUT-1        1316         24   207.E-03
  OSSO-CUT-1        1316        846   207.E-03
  OSSO-CUT-1        1317         25   254.E-03
  OSSO-CUT-1        1317        769   254.E-03
  OSSO-CUT-1        1318         25   291.E-03
  OSSO-CUT-1        1318        770   291.E-03
  OSSO-CUT-1        1319         25   324.E-03
  OSSO-CUT-1        1319        650   324.E-03
  OSSO-CUT-1        1320         26   199.E-03
  OSSO-CUT-1        1320        845   199.E-03
  OSSO-CUT-1        1321         26   166.E-03
  OSSO-CUT-1        1321       1096   166.E-03
  OSSO-CUT-1        1322         26   169.E-03
  OSSO-CUT-1        1322        928   169.E-03
  OSSO-CUT-1        1323         26   204.E-03
  OSSO-CUT-1        1323        809   204.E-03
  OSSO-CUT-1        1324         27    81.E-03
  OSSO-CUT-1        1324        228    81.E-03
  OSSO-CUT-1        1325         27    79.E-03
  OSSO-CUT-1        1325        805    79.E-03
  OSSO-CUT-1        1326         27    90.E-03
  OSSO-CUT-1        1326        230    90.E-03
  OSSO-CUT-1        1327         27    90.E-03
  OSSO-CUT-1        1327        896    90.E-03
  OSSO-CUT-1        1328         28    84.E-03
  OSSO-CUT-1        1328        576    84.E-03
  OSSO-CUT-1        1329         28   103.E-03
  OSSO-CUT-1        1329        602   103.E-03
  OSSO-CUT-1        1330         28    89.E-03
  OSSO-CUT-1        1330         29    89.E-03
  OSSO-CUT-1        1331         28    81.E-03
  OSSO-CUT-1        1331        634    81.E-03
  OSSO-CUT-1        1332         29   103.E-03
  OSSO-CUT-1        1332        396   103.E-03
  OSSO-CUT-1        1333         29   103.E-03
  OSSO-CUT-1        1333        398   103.E-03
  OSSO-CUT-1        1334         29    76.E-03
  OSSO-CUT-1        1335         30   166.E-03
  OSSO-CUT-1        1336         30   172.E-03
  OSSO-CUT-1        1337         30   142.E-03
  OSSO-CUT-1        1337         31   142.E-03
  OSSO-CUT-1        1338         30   143.E-03
  OSSO-CUT-1        1338        224   143.E-03
  OSSO-CUT-1        1339         31   120.E-03
  OSSO-CUT-1        1339        476   120.E-03
  OSSO-CUT-1        1340         31   139.E-03
  OSSO-CUT-1        1341         32    67.E-03
  OSSO-CUT-1        1341        428    67.E-03
  OSSO-CUT-1        1342         32     2.E-03
  OSSO-CUT-1        1343         32    50.E-03
  OSSO-CUT-1        1343        429    50.E-03
  OSSO-CUT-1        1344         32   102.E-03
  OSSO-CUT-1        1344       1031   102.E-03
  OSSO-CUT-1        1345         33   127.E-03
  OSSO-CUT-1        1346         33   115.E-03
  OSSO-CUT-1        1346        428   115.E-03
  OSSO-CUT-1        1347         33   169.E-03
  OSSO-CUT-1        1347       1042   169.E-03
  OSSO-CUT-1        1348         33   169.E-03
  OSSO-CUT-1        1348        427   169.E-03
  OSSO-CUT-1        1349         34   304.E-03
  OSSO-CUT-1        1349        500   304.E-03
  OSSO-CUT-1        1350         34   336.E-03
  OSSO-CUT-1        1350        328   336.E-03
  OSSO-CUT-1        1351         34   350.E-03
  OSSO-CUT-1        1351        496   350.E-03
  OSSO-CUT-1        1352         34   322.E-03
  OSSO-CUT-1        1352        426   322.E-03
  OSSO-CUT-1        1353         35   418.E-03
  OSSO-CUT-1        1353        425   418.E-03
  OSSO-CUT-1        1354         35   424.E-03
  OSSO-CUT-1        1354        127   424.E-03
  OSSO-CUT-1        1355         35   479.E-03
  OSSO-CUT-1        1355        125   479.E-03
  OSSO-CUT-1        1356         35   479.E-03
  OSSO-CUT-1        1357         36   432.E-03
  OSSO-CUT-1        1357        646   432.E-03
  OSSO-CUT-1        1358         36   429.E-03
  OSSO-CUT-1        1358        495   429.E-03
  OSSO-CUT-1        1359         36   414.E-03
  OSSO-CUT-1        1359        318   414.E-03
  OSSO-CUT-1        1360         36   420.E-03
  OSSO-CUT-1        1360        659   420.E-03
  OSSO-CUT-1        1361         37   437.E-03
  OSSO-CUT-1        1361        740   437.E-03
  OSSO-CUT-1        1362         37   436.E-03
  OSSO-CUT-1        1362         71   436.E-03
  OSSO-CUT-1        1363         37   432.E-03
  OSSO-CUT-1        1363        631   432.E-03
  OSSO-CUT-1        1364         37   433.E-03
  OSSO-CUT-1        1364        324   433.E-03
  OSSO-CUT-1        1365         38   441.E-03
  OSSO-CUT-1        1365        317   441.E-03
  OSSO-CUT-1        1366         38   440.E-03
  OSSO-CUT-1        1366       1028   440.E-03
  OSSO-CUT-1        1367         38   437.E-03
  OSSO-CUT-1        1367       1009   437.E-03
  OSSO-CUT-1        1368         38   438.E-03
  OSSO-CUT-1        1368        953   438.E-03
  OSSO-CUT-1        1369         39   431.E-03
  OSSO-CUT-1        1369       1116   431.E-03
  OSSO-CUT-1        1370         39   429.E-03
  OSSO-CUT-1        1370       1017   429.E-03
  OSSO-CUT-1        1371         39   417.E-03
  OSSO-CUT-1        1371       1001   417.E-03
  OSSO-CUT-1        1372         39   419.E-03
  OSSO-CUT-1        1372       1016   419.E-03
  OSSO-CUT-1        1373         40   397.E-03
  OSSO-CUT-1        1373       1117   397.E-03
  OSSO-CUT-1        1374         40   403.E-03
  OSSO-CUT-1        1374        316   403.E-03
  OSSO-CUT-1        1375         40   413.E-03
  OSSO-CUT-1        1375        146   413.E-03
  OSSO-CUT-1        1376         40   407.E-03
  OSSO-CUT-1        1376       1005   407.E-03
  OSSO-CUT-1        1377         41   382.E-03
  OSSO-CUT-1        1377       1117   382.E-03
  OSSO-CUT-1        1378         41   379.E-03
  OSSO-CUT-1        1378        981   379.E-03
  OSSO-CUT-1        1379         41   367.E-03
  OSSO-CUT-1        1379        977   367.E-03
  OSSO-CUT-1        1380         41   370.E-03
  OSSO-CUT-1        1380        930   370.E-03
  OSSO-CUT-1        1381         42   262.E-03
  OSSO-CUT-1        1381        314   262.E-03
  OSSO-CUT-1        1382         42   264.E-03
  OSSO-CUT-1        1382        924   264.E-03
  OSSO-CUT-1        1383         42   285.E-03
  OSSO-CUT-1        1383        951   285.E-03
  OSSO-CUT-1        1384         42   282.E-03
  OSSO-CUT-1        1384        968   282.E-03
  OSSO-CUT-1        1385         43   166.E-03
  OSSO-CUT-1        1385        312   166.E-03
  OSSO-CUT-1        1386         43   203.E-03
  OSSO-CUT-1        1386        942   203.E-03
  OSSO-CUT-1        1387         43   185.E-03
  OSSO-CUT-1        1387        891   185.E-03
  OSSO-CUT-1        1388         43   147.E-03
  OSSO-CUT-1        1388        984   147.E-03
  OSSO-CUT-1        1389         44   114.E-03
  OSSO-CUT-1        1389        448   114.E-03
  OSSO-CUT-1        1390         44   128.E-03
  OSSO-CUT-1        1390        984   128.E-03
  OSSO-CUT-1        1391         44   177.E-03
  OSSO-CUT-1        1391        891   177.E-03
  OSSO-CUT-1        1392         44   162.E-03
  OSSO-CUT-1        1392        872   162.E-03
  OSSO-CUT-1        1393         45    35.E-03
  OSSO-CUT-1        1393        449    35.E-03
  OSSO-CUT-1        1394         45    82.E-03
  OSSO-CUT-1        1394        984    82.E-03
  OSSO-CUT-1        1395         45    59.E-03
  OSSO-CUT-1        1395        448    59.E-03
  OSSO-CUT-1        1396         45     9.E-03
  OSSO-CUT-1        1397         46    80.E-03
  OSSO-CUT-1        1398         46    86.E-03
  OSSO-CUT-1        1398         47    86.E-03
  OSSO-CUT-1        1399         46    73.E-03
  OSSO-CUT-1        1399        513    73.E-03
  OSSO-CUT-1        1400         46    52.E-03
  OSSO-CUT-1        1400        449    52.E-03
  OSSO-CUT-1        1401         47    95.E-03
  OSSO-CUT-1        1401        515    95.E-03
  OSSO-CUT-1        1402         47   121.E-03
  OSSO-CUT-1        1403         47   121.E-03
  OSSO-CUT-1        1403        450   121.E-03
  OSSO-CUT-1        1404         48   107.E-03
  OSSO-CUT-1        1404        515   107.E-03
  OSSO-CUT-1        1405         48   121.E-03
  OSSO-CUT-1        1405        450   121.E-03
  OSSO-CUT-1        1406         48   125.E-03
  OSSO-CUT-1        1406        518   125.E-03
  OSSO-CUT-1        1407         48   116.E-03
  OSSO-CUT-1        1407        285   116.E-03
  OSSO-CUT-1        1408         49   126.E-03
  OSSO-CUT-1        1408        518   126.E-03
  OSSO-CUT-1        1409         49   129.E-03
  OSSO-CUT-1        1409         92   129.E-03
  OSSO-CUT-1        1410         49   132.E-03
  OSSO-CUT-1        1410        658   132.E-03
  OSSO-CUT-1        1411         49   125.E-03
  OSSO-CUT-1        1411        285   125.E-03
  OSSO-CUT-1        1412         50   206.E-03
  OSSO-CUT-1        1412        536   206.E-03
  OSSO-CUT-1        1413         50   178.E-03
  OSSO-CUT-1        1413        248   178.E-03
  OSSO-CUT-1        1414         50   159.E-03
  OSSO-CUT-1        1414        475   159.E-03
  OSSO-CUT-1        1415         50   186.E-03
  OSSO-CUT-1        1415         51   186.E-03
  OSSO-CUT-1        1416         51   213.E-03
  OSSO-CUT-1        1416        405   213.E-03
  OSSO-CUT-1        1417         51   164.E-03
  OSSO-CUT-1        1417        253   164.E-03
  OSSO-CUT-1        1418         51   191.E-03
  OSSO-CUT-1        1419         52   365.E-03
  OSSO-CUT-1        1419         54   365.E-03
  OSSO-CUT-1        1420         52   313.E-03
  OSSO-CUT-1        1420        681   313.E-03
  OSSO-CUT-1        1421         52   284.E-03
  OSSO-CUT-1        1421        405   284.E-03
  OSSO-CUT-1        1422         52   335.E-03
  OSSO-CUT-1        1423         53   298.E-03
  OSSO-CUT-1        1423        644   298.E-03
  OSSO-CUT-1        1424         53   310.E-03
  OSSO-CUT-1        1424        681   310.E-03
  OSSO-CUT-1        1425         53   320.E-03
  OSSO-CUT-1        1425         54   320.E-03
  OSSO-CUT-1        1426         53   313.E-03
  OSSO-CUT-1        1426        645   313.E-03
  OSSO-CUT-1        1427         54   322.E-03
  OSSO-CUT-1        1427        561   322.E-03
  OSSO-CUT-1        1428         54   300.E-03
  OSSO-CUT-1        1428        560   300.E-03
  OSSO-CUT-1        1429         55   322.E-03
  OSSO-CUT-1        1429         56   322.E-03
  OSSO-CUT-1        1430         55   328.E-03
  OSSO-CUT-1        1430        561   328.E-03
  OSSO-CUT-1        1431         55   297.E-03
  OSSO-CUT-1        1432         55   301.E-03
  OSSO-CUT-1        1432        406   301.E-03
  OSSO-CUT-1        1433         56   320.E-03
  OSSO-CUT-1        1433        544   320.E-03
  OSSO-CUT-1        1434         56   326.E-03
  OSSO-CUT-1        1434        280   326.E-03
  OSSO-CUT-1        1435         56   323.E-03
  OSSO-CUT-1        1435        795   323.E-03
  OSSO-CUT-1        1436         57   292.E-03
  OSSO-CUT-1        1436         95   292.E-03
  OSSO-CUT-1        1437         57   297.E-03
  OSSO-CUT-1        1437        543   297.E-03
  OSSO-CUT-1        1438         57   306.E-03
  OSSO-CUT-1        1438        662   306.E-03
  OSSO-CUT-1        1439         57   301.E-03
  OSSO-CUT-1        1439        281   301.E-03
  OSSO-CUT-1        1440         58   309.E-03
  OSSO-CUT-1        1440        662   309.E-03
  OSSO-CUT-1        1441         58   303.E-03
  OSSO-CUT-1        1441        543   303.E-03
  OSSO-CUT-1        1442         58   308.E-03
  OSSO-CUT-1        1442        732   308.E-03
  OSSO-CUT-1        1443         58   314.E-03
  OSSO-CUT-1        1443        572   314.E-03
  OSSO-CUT-1        1444         59   347.E-03
  OSSO-CUT-1        1444        276   347.E-03
  OSSO-CUT-1        1445         59   339.E-03
  OSSO-CUT-1        1445       1090   339.E-03
  OSSO-CUT-1        1446         59   348.E-03
  OSSO-CUT-1        1446       1099   348.E-03
  OSSO-CUT-1        1447         59   356.E-03
  OSSO-CUT-1        1447        849   356.E-03
  OSSO-CUT-1        1448         60   388.E-03
  OSSO-CUT-1        1448        936   388.E-03
  OSSO-CUT-1        1449         60   387.E-03
  OSSO-CUT-1        1449        910   387.E-03
  OSSO-CUT-1        1450         60   411.E-03
  OSSO-CUT-1        1450        653   411.E-03
  OSSO-CUT-1        1451         60   411.E-03
  OSSO-CUT-1        1451       1074   411.E-03
  OSSO-CUT-1        1452         61   429.E-03
  OSSO-CUT-1        1452        798   429.E-03
  OSSO-CUT-1        1453         61   466.E-03
  OSSO-CUT-1        1453        294   466.E-03
  OSSO-CUT-1        1454         61   475.E-03
  OSSO-CUT-1        1454        469   475.E-03
  OSSO-CUT-1        1455         61   438.E-03
  OSSO-CUT-1        1455        653   438.E-03
  OSSO-CUT-1        1456         62   659.E-03
  OSSO-CUT-1        1456        465   659.E-03
  OSSO-CUT-1        1457         62   622.E-03
  OSSO-CUT-1        1457        586   622.E-03
  OSSO-CUT-1        1458         62   679.E-03
  OSSO-CUT-1        1458         63   679.E-03
  OSSO-CUT-1        1459         62   732.E-03
  OSSO-CUT-1        1459        421   732.E-03
  OSSO-CUT-1        1460         63   673.E-03
  OSSO-CUT-1        1461         63   685.E-03
  OSSO-CUT-1        1461        421   685.E-03
  OSSO-CUT-1        1462         63   673.E-03
  OSSO-CUT-1        1462        420   673.E-03
  OSSO-CUT-1        1463         64   845.E-03
  OSSO-CUT-1        1463         65   845.E-03
  OSSO-CUT-1        1464         64   576.E-03
  OSSO-CUT-1        1464        597   576.E-03
  OSSO-CUT-1        1465         64   596.E-03
  OSSO-CUT-1        1465        257   596.E-03
  OSSO-CUT-1        1466         64   853.E-03
  OSSO-CUT-1        1466        422   853.E-03
  OSSO-CUT-1        1467         65         1.
  OSSO-CUT-1        1468         65   734.E-03
  OSSO-CUT-1        1468         66   734.E-03
  OSSO-CUT-1        1469         65   632.E-03
  OSSO-CUT-1        1469        256   632.E-03
  OSSO-CUT-1        1470         66   618.E-03
  OSSO-CUT-1        1471         66   564.E-03
  OSSO-CUT-1        1471        255   564.E-03
  OSSO-CUT-1        1472         66   678.E-03
  OSSO-CUT-1        1472        461   678.E-03
  OSSO-CUT-1        1473         67   458.E-03
  OSSO-CUT-1        1473        126   458.E-03
  OSSO-CUT-1        1474         67   443.E-03
  OSSO-CUT-1        1474        646   443.E-03
  OSSO-CUT-1        1475         67   456.E-03
  OSSO-CUT-1        1475        647   456.E-03
  OSSO-CUT-1        1476         67   472.E-03
  OSSO-CUT-1        1476        689   472.E-03
  OSSO-CUT-1        1477         68   467.E-03
  OSSO-CUT-1        1477        730   467.E-03
  OSSO-CUT-1        1478         68   476.E-03
  OSSO-CUT-1        1478         69   476.E-03
  OSSO-CUT-1        1479         68   461.E-03
  OSSO-CUT-1        1479        758   461.E-03
  OSSO-CUT-1        1480         68   453.E-03
  OSSO-CUT-1        1480        960   453.E-03
  OSSO-CUT-1        1481         69   481.E-03
  OSSO-CUT-1        1481        694   481.E-03
  OSSO-CUT-1        1482         69   498.E-03
  OSSO-CUT-1        1482        690   498.E-03
  OSSO-CUT-1        1483         69   504.E-03
  OSSO-CUT-1        1483        607   504.E-03
  OSSO-CUT-1        1484         70   436.E-03
  OSSO-CUT-1        1484        966   436.E-03
  OSSO-CUT-1        1485         70   440.E-03
  OSSO-CUT-1        1485        948   440.E-03
  OSSO-CUT-1        1486         70   443.E-03
  OSSO-CUT-1        1486        829   443.E-03
  OSSO-CUT-1        1487         70   439.E-03
  OSSO-CUT-1        1487        741   439.E-03
  OSSO-CUT-1        1488         71   436.E-03
  OSSO-CUT-1        1488        953   436.E-03
  OSSO-CUT-1        1489         71   436.E-03
  OSSO-CUT-1        1489        966   436.E-03
  OSSO-CUT-1        1490         71   436.E-03
  OSSO-CUT-1        1490        741   436.E-03
  OSSO-CUT-1        1491         72   226.E-03
  OSSO-CUT-1        1491        195   226.E-03
  OSSO-CUT-1        1492         72   241.E-03
  OSSO-CUT-1        1492        453   241.E-03
  OSSO-CUT-1        1493         72   252.E-03
  OSSO-CUT-1        1494         72   241.E-03
  OSSO-CUT-1        1494        454   241.E-03
  OSSO-CUT-1        1495         73   198.E-03
  OSSO-CUT-1        1495        403   198.E-03
  OSSO-CUT-1        1496         73   216.E-03
  OSSO-CUT-1        1496        194   216.E-03
  OSSO-CUT-1        1497         73   241.E-03
  OSSO-CUT-1        1498         73   224.E-03
  OSSO-CUT-1        1498         74   224.E-03
  OSSO-CUT-1        1499         74   250.E-03
  OSSO-CUT-1        1500         74   237.E-03
  OSSO-CUT-1        1500        453   237.E-03
  OSSO-CUT-1        1501         74   211.E-03
  OSSO-CUT-1        1501        520   211.E-03
  OSSO-CUT-1        1502         75   153.E-03
  OSSO-CUT-1        1502        521   153.E-03
  OSSO-CUT-1        1503         75   141.E-03
  OSSO-CUT-1        1504         75   140.E-03
  OSSO-CUT-1        1504         76   140.E-03
  OSSO-CUT-1        1505         75   152.E-03
  OSSO-CUT-1        1505        626   152.E-03
  OSSO-CUT-1        1506         76   127.E-03
  OSSO-CUT-1        1507         76   124.E-03
  OSSO-CUT-1        1507         77   124.E-03
  OSSO-CUT-1        1508         76   135.E-03
  OSSO-CUT-1        1508        537   135.E-03
  OSSO-CUT-1        1509         77   114.E-03
  OSSO-CUT-1        1510         77   112.E-03
  OSSO-CUT-1        1510        252   112.E-03
  OSSO-CUT-1        1511         77   120.E-03
  OSSO-CUT-1        1511        474   120.E-03
  OSSO-CUT-1        1512         78   200.E-03
  OSSO-CUT-1        1512        452   200.E-03
  OSSO-CUT-1        1513         78   184.E-03
  OSSO-CUT-1        1513        683   184.E-03
  OSSO-CUT-1        1514         78   162.E-03
  OSSO-CUT-1        1514        512   162.E-03
  OSSO-CUT-1        1515         78   177.E-03
  OSSO-CUT-1        1515        514   177.E-03
  OSSO-CUT-1        1516         79   202.E-03
  OSSO-CUT-1        1516        683   202.E-03
  OSSO-CUT-1        1517         79   223.E-03
  OSSO-CUT-1        1517        452   223.E-03
  OSSO-CUT-1        1518         79   242.E-03
  OSSO-CUT-1        1519         79   222.E-03
  OSSO-CUT-1        1519        194   222.E-03
  OSSO-CUT-1        1520         80   142.E-03
  OSSO-CUT-1        1520        882   142.E-03
  OSSO-CUT-1        1521         80   157.E-03
  OSSO-CUT-1        1521        625   157.E-03
  OSSO-CUT-1        1522         80   163.E-03
  OSSO-CUT-1        1522        519   163.E-03
  OSSO-CUT-1        1523         80   148.E-03
  OSSO-CUT-1        1523        537   148.E-03
  OSSO-CUT-1        1524         81   233.E-03
  OSSO-CUT-1        1524         82   233.E-03
  OSSO-CUT-1        1525         81   244.E-03
  OSSO-CUT-1        1525        616   244.E-03
  OSSO-CUT-1        1526         81   246.E-03
  OSSO-CUT-1        1526        615   246.E-03
  OSSO-CUT-1        1527         81   235.E-03
  OSSO-CUT-1        1527        555   235.E-03
  OSSO-CUT-1        1528         82   236.E-03
  OSSO-CUT-1        1528        401   236.E-03
  OSSO-CUT-1        1529         82   222.E-03
  OSSO-CUT-1        1529         90   222.E-03
  OSSO-CUT-1        1530         82   225.E-03
  OSSO-CUT-1        1531         83   254.E-03
  OSSO-CUT-1        1531        202   254.E-03
  OSSO-CUT-1        1532         83   241.E-03
  OSSO-CUT-1        1532        700   241.E-03
  OSSO-CUT-1        1533         83   236.E-03
  OSSO-CUT-1        1533        555   236.E-03
  OSSO-CUT-1        1534         83   250.E-03
  OSSO-CUT-1        1534        615   250.E-03
  OSSO-CUT-1        1535         84   149.E-03
  OSSO-CUT-1        1535        400   149.E-03
  OSSO-CUT-1        1536         84   151.E-03
  OSSO-CUT-1        1537         84   177.E-03
  OSSO-CUT-1        1537         89   177.E-03
  OSSO-CUT-1        1538         84   175.E-03
  OSSO-CUT-1        1538        695   175.E-03
  OSSO-CUT-1        1539         85   100.E-03
  OSSO-CUT-1        1539        389   100.E-03
  OSSO-CUT-1        1540         85   100.E-03
  OSSO-CUT-1        1540        559   100.E-03
  OSSO-CUT-1        1541         85    84.E-03
  OSSO-CUT-1        1541        390    84.E-03
  OSSO-CUT-1        1542         85    83.E-03
  OSSO-CUT-1        1543         86    83.E-03
  OSSO-CUT-1        1543        390    83.E-03
  OSSO-CUT-1        1544         86    98.E-03
  OSSO-CUT-1        1544        559    98.E-03
  OSSO-CUT-1        1545         86    95.E-03
  OSSO-CUT-1        1545        236    95.E-03
  OSSO-CUT-1        1546         86    81.E-03
  OSSO-CUT-1        1546        554    81.E-03
  OSSO-CUT-1        1547         87    84.E-03
  OSSO-CUT-1        1547        388    84.E-03
  OSSO-CUT-1        1548         87    87.E-03
  OSSO-CUT-1        1549         87    78.E-03
  OSSO-CUT-1        1549        241    78.E-03
  OSSO-CUT-1        1550         87    75.E-03
  OSSO-CUT-1        1550        242    75.E-03
  OSSO-CUT-1        1551         88    90.E-03
  OSSO-CUT-1        1551        388    90.E-03
  OSSO-CUT-1        1552         88    82.E-03
  OSSO-CUT-1        1552        553    82.E-03
  OSSO-CUT-1        1553         88    94.E-03
  OSSO-CUT-1        1553        556    94.E-03
  OSSO-CUT-1        1554         88   102.E-03
  OSSO-CUT-1        1555         89   179.E-03
  OSSO-CUT-1        1556         89   201.E-03
  OSSO-CUT-1        1556         90   201.E-03
  OSSO-CUT-1        1557         89   199.E-03
  OSSO-CUT-1        1557        716   199.E-03
  OSSO-CUT-1        1558         90   219.E-03
  OSSO-CUT-1        1558        555   219.E-03
  OSSO-CUT-1        1559         90   205.E-03
  OSSO-CUT-1        1560         91   137.E-03
  OSSO-CUT-1        1560        698   137.E-03
  OSSO-CUT-1        1561         91   127.E-03
  OSSO-CUT-1        1561        632   127.E-03
  OSSO-CUT-1        1562         91   140.E-03
  OSSO-CUT-1        1562        475   140.E-03
  OSSO-CUT-1        1563         91   153.E-03
  OSSO-CUT-1        1563        248   153.E-03
  OSSO-CUT-1        1564         92   131.E-03
  OSSO-CUT-1        1564        734   131.E-03
  OSSO-CUT-1        1565         92   137.E-03
  OSSO-CUT-1        1565        516   137.E-03
  OSSO-CUT-1        1566         92   135.E-03
  OSSO-CUT-1        1566        621   135.E-03
  OSSO-CUT-1        1567         93   158.E-03
  OSSO-CUT-1        1567        516   158.E-03
  OSSO-CUT-1        1568         93   182.E-03
  OSSO-CUT-1        1568        451   182.E-03
  OSSO-CUT-1        1569         93   170.E-03
  OSSO-CUT-1        1569        514   170.E-03
  OSSO-CUT-1        1570         93   147.E-03
  OSSO-CUT-1        1570        621   147.E-03
  OSSO-CUT-1        1571         94   166.E-03
  OSSO-CUT-1        1571        516   166.E-03
  OSSO-CUT-1        1572         94   179.E-03
  OSSO-CUT-1        1572        517   179.E-03
  OSSO-CUT-1        1573         94   213.E-03
  OSSO-CUT-1        1574         94   199.E-03
  OSSO-CUT-1        1574        451   199.E-03
  OSSO-CUT-1        1575         95   284.E-03
  OSSO-CUT-1        1575        542   284.E-03
  OSSO-CUT-1        1576         95   275.E-03
  OSSO-CUT-1        1577         95   283.E-03
  OSSO-CUT-1        1577        407   283.E-03
  OSSO-CUT-1        1578         96   308.E-03
  OSSO-CUT-1        1578        731   308.E-03
  OSSO-CUT-1        1579         96   301.E-03
  OSSO-CUT-1        1579        107   301.E-03
  OSSO-CUT-1        1580         96   300.E-03
  OSSO-CUT-1        1580        408   300.E-03
  OSSO-CUT-1        1581         96   307.E-03
  OSSO-CUT-1        1581        547   307.E-03
  OSSO-CUT-1        1582         97   314.E-03
  OSSO-CUT-1        1582        296   314.E-03
  OSSO-CUT-1        1583         97   309.E-03
  OSSO-CUT-1        1583        409   309.E-03
  OSSO-CUT-1        1584         97   311.E-03
  OSSO-CUT-1        1585         97   316.E-03
  OSSO-CUT-1        1585        410   316.E-03
  OSSO-CUT-1        1586         98   330.E-03
  OSSO-CUT-1        1586        628   330.E-03
  OSSO-CUT-1        1587         98   327.E-03
  OSSO-CUT-1        1587        303   327.E-03
  OSSO-CUT-1        1588         98   323.E-03
  OSSO-CUT-1        1588        302   323.E-03
  OSSO-CUT-1        1589         98   325.E-03
  OSSO-CUT-1        1589        551   325.E-03
  OSSO-CUT-1        1590         99   285.E-03
  OSSO-CUT-1        1590        545   285.E-03
  OSSO-CUT-1        1591         99   296.E-03
  OSSO-CUT-1        1591        541   296.E-03
  OSSO-CUT-1        1592         99   290.E-03
  OSSO-CUT-1        1593         99   276.E-03
  OSSO-CUT-1        1593        101   276.E-03
  OSSO-CUT-1        1594        100   270.E-03
  OSSO-CUT-1        1594        101   270.E-03
  OSSO-CUT-1        1595        100   277.E-03
  OSSO-CUT-1        1595        462   277.E-03
  OSSO-CUT-1        1596        100   292.E-03
  OSSO-CUT-1        1596        103   292.E-03
  OSSO-CUT-1        1597        100   285.E-03
  OSSO-CUT-1        1597        545   285.E-03
  OSSO-CUT-1        1598        101   274.E-03
  OSSO-CUT-1        1599        101   261.E-03
  OSSO-CUT-1        1599        412   261.E-03
  OSSO-CUT-1        1600        102   299.E-03
  OSSO-CUT-1        1600        463   299.E-03
  OSSO-CUT-1        1601        102   335.E-03
  OSSO-CUT-1        1601        304   335.E-03
  OSSO-CUT-1        1602        102   340.E-03
  OSSO-CUT-1        1602        574   340.E-03
  OSSO-CUT-1        1603        102   313.E-03
  OSSO-CUT-1        1603        567   313.E-03
  OSSO-CUT-1        1604        103   288.E-03
  OSSO-CUT-1        1604        413   288.E-03
  OSSO-CUT-1        1605        103   316.E-03
  OSSO-CUT-1        1605        463   316.E-03
  OSSO-CUT-1        1606        103   309.E-03
  OSSO-CUT-1        1606        685   309.E-03
  OSSO-CUT-1        1607        104   345.E-03
  OSSO-CUT-1        1607        305   345.E-03
  OSSO-CUT-1        1608        104   332.E-03
  OSSO-CUT-1        1608        688   332.E-03
  OSSO-CUT-1        1609        104   322.E-03
  OSSO-CUT-1        1609        745   322.E-03
  OSSO-CUT-1        1610        104   334.E-03
  OSSO-CUT-1        1610        573   334.E-03
  OSSO-CUT-1        1611        105   363.E-03
  OSSO-CUT-1        1611        297   363.E-03
  OSSO-CUT-1        1612        105   350.E-03
  OSSO-CUT-1        1612        939   350.E-03
  OSSO-CUT-1        1613        105   347.E-03
  OSSO-CUT-1        1613        628   347.E-03
  OSSO-CUT-1        1614        105   359.E-03
  OSSO-CUT-1        1614        814   359.E-03
  OSSO-CUT-1        1615        106   315.E-03
  OSSO-CUT-1        1615        731   315.E-03
  OSSO-CUT-1        1616        106   314.E-03
  OSSO-CUT-1        1616        547   314.E-03
  OSSO-CUT-1        1617        106   321.E-03
  OSSO-CUT-1        1617       1012   321.E-03
  OSSO-CUT-1        1618        106   323.E-03
  OSSO-CUT-1        1618        686   323.E-03
  OSSO-CUT-1        1619        107   297.E-03
  OSSO-CUT-1        1619        543   297.E-03
  OSSO-CUT-1        1620        107   294.E-03
  OSSO-CUT-1        1620        108   294.E-03
  OSSO-CUT-1        1621        107   304.E-03
  OSSO-CUT-1        1621        732   304.E-03
  OSSO-CUT-1        1622        108   284.E-03
  OSSO-CUT-1        1623        108   292.E-03
  OSSO-CUT-1        1623        408   292.E-03
  OSSO-CUT-1        1624        108   286.E-03
  OSSO-CUT-1        1624        407   286.E-03
  OSSO-CUT-1        1625        109   380.E-03
  OSSO-CUT-1        1625        574   380.E-03
  OSSO-CUT-1        1626        109   396.E-03
  OSSO-CUT-1        1626        304   396.E-03
  OSSO-CUT-1        1627        109   426.E-03
  OSSO-CUT-1        1627        596   426.E-03
  OSSO-CUT-1        1628        109   407.E-03
  OSSO-CUT-1        1628        471   407.E-03
  OSSO-CUT-1        1629        110   416.E-03
  OSSO-CUT-1        1629        471   416.E-03
  OSSO-CUT-1        1630        110   424.E-03
  OSSO-CUT-1        1630       1080   424.E-03
  OSSO-CUT-1        1631        110   427.E-03
  OSSO-CUT-1        1631        753   427.E-03
  OSSO-CUT-1        1632        110   419.E-03
  OSSO-CUT-1        1632        786   419.E-03
  OSSO-CUT-1        1633        111   459.E-03
  OSSO-CUT-1        1633        736   459.E-03
  OSSO-CUT-1        1634        111   487.E-03
  OSSO-CUT-1        1634        655   487.E-03
  OSSO-CUT-1        1635        111   515.E-03
  OSSO-CUT-1        1635        586   515.E-03
  OSSO-CUT-1        1636        111   486.E-03
  OSSO-CUT-1        1636        294   486.E-03
  OSSO-CUT-1        1637        112   770.E-03
  OSSO-CUT-1        1638        112   695.E-03
  OSSO-CUT-1        1638        420   695.E-03
  OSSO-CUT-1        1639        112   526.E-03
  OSSO-CUT-1        1639        932   526.E-03
  OSSO-CUT-1        1640        112   577.E-03
  OSSO-CUT-1        1640        117   577.E-03
  OSSO-CUT-1        1641        113   192.E-03
  OSSO-CUT-1        1641        581   192.E-03
  OSSO-CUT-1        1642        113   198.E-03
  OSSO-CUT-1        1642        562   198.E-03
  OSSO-CUT-1        1643        113   165.E-03
  OSSO-CUT-1        1644        113   157.E-03
  OSSO-CUT-1        1644        416   157.E-03
  OSSO-CUT-1        1645        114   250.E-03
  OSSO-CUT-1        1645        477   250.E-03
  OSSO-CUT-1        1646        114   263.E-03
  OSSO-CUT-1        1646        418   263.E-03
  OSSO-CUT-1        1647        114   328.E-03
  OSSO-CUT-1        1647        116   328.E-03
  OSSO-CUT-1        1648        114   318.E-03
  OSSO-CUT-1        1648        478   318.E-03
  OSSO-CUT-1        1649        115   221.E-03
  OSSO-CUT-1        1649        418   221.E-03
  OSSO-CUT-1        1650        115   252.E-03
  OSSO-CUT-1        1651        115   363.E-03
  OSSO-CUT-1        1651        117   363.E-03
  OSSO-CUT-1        1652        115   365.E-03
  OSSO-CUT-1        1652        116   365.E-03
  OSSO-CUT-1        1653        116   412.E-03
  OSSO-CUT-1        1653        419   412.E-03
  OSSO-CUT-1        1654        116   389.E-03
  OSSO-CUT-1        1654        299   389.E-03
  OSSO-CUT-1        1655        117   458.E-03
  OSSO-CUT-1        1655        419   458.E-03
  OSSO-CUT-1        1656        117   521.E-03
  OSSO-CUT-1        1657        118   257.E-03
  OSSO-CUT-1        1657        119   257.E-03
  OSSO-CUT-1        1658        118   228.E-03
  OSSO-CUT-1        1658        562   228.E-03
  OSSO-CUT-1        1659        118   226.E-03
  OSSO-CUT-1        1659        581   226.E-03
  OSSO-CUT-1        1660        118   254.E-03
  OSSO-CUT-1        1660        563   254.E-03
  OSSO-CUT-1        1661        119   279.E-03
  OSSO-CUT-1        1661        673   279.E-03
  OSSO-CUT-1        1662        119   275.E-03
  OSSO-CUT-1        1662        121   275.E-03
  OSSO-CUT-1        1663        119   245.E-03
  OSSO-CUT-1        1663        415   245.E-03
  OSSO-CUT-1        1664        120   452.E-03
  OSSO-CUT-1        1664        470   452.E-03
  OSSO-CUT-1        1665        120   334.E-03
  OSSO-CUT-1        1665        121   334.E-03
  OSSO-CUT-1        1666        120   306.E-03
  OSSO-CUT-1        1666        673   306.E-03
  OSSO-CUT-1        1667        120   377.E-03
  OSSO-CUT-1        1667        582   377.E-03
  OSSO-CUT-1        1668        121   251.E-03
  OSSO-CUT-1        1668        122   251.E-03
  OSSO-CUT-1        1669        121   324.E-03
  OSSO-CUT-1        1670        122   239.E-03
  OSSO-CUT-1        1670        415   239.E-03
  OSSO-CUT-1        1671        122   192.E-03
  OSSO-CUT-1        1672        122   182.E-03
  OSSO-CUT-1        1673        123   145.E-03
  OSSO-CUT-1        1673        418   145.E-03
  OSSO-CUT-1        1674        123   201.E-03
  OSSO-CUT-1        1674        477   201.E-03
  OSSO-CUT-1        1675        123   123.E-03
  OSSO-CUT-1        1675        301   123.E-03
  OSSO-CUT-1        1676        123    71.E-03
  OSSO-CUT-1        1677        124   559.E-03
  OSSO-CUT-1        1677        499   559.E-03
  OSSO-CUT-1        1678        124   569.E-03
  OSSO-CUT-1        1678        587   569.E-03
  OSSO-CUT-1        1679        124   608.E-03
  OSSO-CUT-1        1679        461   608.E-03
  OSSO-CUT-1        1680        124   601.E-03
  OSSO-CUT-1        1680        255   601.E-03
  OSSO-CUT-1        1681        125   523.E-03
  OSSO-CUT-1        1681        424   523.E-03
  OSSO-CUT-1        1682        125   545.E-03
  OSSO-CUT-1        1683        125   460.E-03
  OSSO-CUT-1        1683        495   460.E-03
  OSSO-CUT-1        1684        126   457.E-03
  OSSO-CUT-1        1684        495   457.E-03
  OSSO-CUT-1        1685        126   490.E-03
  OSSO-CUT-1        1685        498   490.E-03
  OSSO-CUT-1        1686        126   489.E-03
  OSSO-CUT-1        1686        424   489.E-03
  OSSO-CUT-1        1687        127   393.E-03
  OSSO-CUT-1        1687        496   393.E-03
  OSSO-CUT-1        1688        127   404.E-03
  OSSO-CUT-1        1688        318   404.E-03
  OSSO-CUT-1        1689        127   430.E-03
  OSSO-CUT-1        1689        495   430.E-03
  OSSO-CUT-1        1690        128   227.E-03
  OSSO-CUT-1        1690        427   227.E-03
  OSSO-CUT-1        1691        128   267.E-03
  OSSO-CUT-1        1691        500   267.E-03
  OSSO-CUT-1        1692        128   287.E-03
  OSSO-CUT-1        1692        426   287.E-03
  OSSO-CUT-1        1693        128   255.E-03
  OSSO-CUT-1        1694        129   187.E-03
  OSSO-CUT-1        1694       1006   187.E-03
  OSSO-CUT-1        1695        129   142.E-03
  OSSO-CUT-1        1695       1033   142.E-03
  OSSO-CUT-1        1696        129   126.E-03
  OSSO-CUT-1        1696        430   126.E-03
  OSSO-CUT-1        1697        129   165.E-03
  OSSO-CUT-1        1697        156   165.E-03
  OSSO-CUT-1        1698        130   201.E-03
  OSSO-CUT-1        1698        156   201.E-03
  OSSO-CUT-1        1699        130   211.E-03
  OSSO-CUT-1        1699        789   211.E-03
  OSSO-CUT-1        1700        130   246.E-03
  OSSO-CUT-1        1700        790   246.E-03
  OSSO-CUT-1        1701        130   246.E-03
  OSSO-CUT-1        1701        355   246.E-03
  OSSO-CUT-1        1702        131   383.E-03
  OSSO-CUT-1        1702       1112   383.E-03
  OSSO-CUT-1        1703        131   365.E-03
  OSSO-CUT-1        1703        824   365.E-03
  OSSO-CUT-1        1704        131   354.E-03
  OSSO-CUT-1        1704        726   354.E-03
  OSSO-CUT-1        1705        131   370.E-03
  OSSO-CUT-1        1705        843   370.E-03
  OSSO-CUT-1        1706        132   361.E-03
  OSSO-CUT-1        1706        384   361.E-03
  OSSO-CUT-1        1707        132   364.E-03
  OSSO-CUT-1        1707        488   364.E-03
  OSSO-CUT-1        1708        132   398.E-03
  OSSO-CUT-1        1708        385   398.E-03
  OSSO-CUT-1        1709        132   393.E-03
  OSSO-CUT-1        1709        692   393.E-03
  OSSO-CUT-1        1710        133   440.E-03
  OSSO-CUT-1        1710        358   440.E-03
  OSSO-CUT-1        1711        133   404.E-03
  OSSO-CUT-1        1711        490   404.E-03
  OSSO-CUT-1        1712        133   407.E-03
  OSSO-CUT-1        1712        134   407.E-03
  OSSO-CUT-1        1713        133   444.E-03
  OSSO-CUT-1        1713        480   444.E-03
  OSSO-CUT-1        1714        134   417.E-03
  OSSO-CUT-1        1714        439   417.E-03
  OSSO-CUT-1        1715        134   370.E-03
  OSSO-CUT-1        1715        438   370.E-03
  OSSO-CUT-1        1716        134   378.E-03
  OSSO-CUT-1        1717        135   470.E-03
  OSSO-CUT-1        1717        439   470.E-03
  OSSO-CUT-1        1718        135   490.E-03
  OSSO-CUT-1        1719        135   536.E-03
  OSSO-CUT-1        1719        136   536.E-03
  OSSO-CUT-1        1720        135   517.E-03
  OSSO-CUT-1        1720        479   517.E-03
  OSSO-CUT-1        1721        136   557.E-03
  OSSO-CUT-1        1722        136   610.E-03
  OSSO-CUT-1        1722        440   610.E-03
  OSSO-CUT-1        1723        136   590.E-03
  OSSO-CUT-1        1723        137   590.E-03
  OSSO-CUT-1        1724        137   647.E-03
  OSSO-CUT-1        1724        482   647.E-03
  OSSO-CUT-1        1725        137   635.E-03
  OSSO-CUT-1        1725        639   635.E-03
  OSSO-CUT-1        1726        137   579.E-03
  OSSO-CUT-1        1726        484   579.E-03
  OSSO-CUT-1        1727        138   802.E-03
  OSSO-CUT-1        1727        173   802.E-03
  OSSO-CUT-1        1728        138   751.E-03
  OSSO-CUT-1        1728        373   751.E-03
  OSSO-CUT-1        1729        138   736.E-03
  OSSO-CUT-1        1729        784   736.E-03
  OSSO-CUT-1        1730        138   785.E-03
  OSSO-CUT-1        1730        603   785.E-03
  OSSO-CUT-1        1731        139   693.E-03
  OSSO-CUT-1        1731        832   693.E-03
  OSSO-CUT-1        1732        139   687.E-03
  OSSO-CUT-1        1732        799   687.E-03
  OSSO-CUT-1        1733        139   722.E-03
  OSSO-CUT-1        1733        373   722.E-03
  OSSO-CUT-1        1734        139   730.E-03
  OSSO-CUT-1        1734        723   730.E-03
  OSSO-CUT-1        1735        140   638.E-03
  OSSO-CUT-1        1735        844   638.E-03
  OSSO-CUT-1        1736        140   632.E-03
  OSSO-CUT-1        1736        585   632.E-03
  OSSO-CUT-1        1737        140   608.E-03
  OSSO-CUT-1        1737        774   608.E-03
  OSSO-CUT-1        1738        140   616.E-03
  OSSO-CUT-1        1738        367   616.E-03
  OSSO-CUT-1        1739        141   588.E-03
  OSSO-CUT-1        1739       1123   588.E-03
  OSSO-CUT-1        1740        141   584.E-03
  OSSO-CUT-1        1740        362   584.E-03
  OSSO-CUT-1        1741        141   571.E-03
  OSSO-CUT-1        1741        859   571.E-03
  OSSO-CUT-1        1742        141   577.E-03
  OSSO-CUT-1        1742        150   577.E-03
  OSSO-CUT-1        1743        142   524.E-03
  OSSO-CUT-1        1743       1020   524.E-03
  OSSO-CUT-1        1744        142   531.E-03
  OSSO-CUT-1        1744        775   531.E-03
  OSSO-CUT-1        1745        142   514.E-03
  OSSO-CUT-1        1745        754   514.E-03
  OSSO-CUT-1        1746        142   507.E-03
  OSSO-CUT-1        1746        342   507.E-03
  OSSO-CUT-1        1747        143   434.E-03
  OSSO-CUT-1        1747        725   434.E-03
  OSSO-CUT-1        1748        143   460.E-03
  OSSO-CUT-1        1748        788   460.E-03
  OSSO-CUT-1        1749        143   463.E-03
  OSSO-CUT-1        1749        787   463.E-03
  OSSO-CUT-1        1750        143   439.E-03
  OSSO-CUT-1        1750        354   439.E-03
  OSSO-CUT-1        1751        144   453.E-03
  OSSO-CUT-1        1751        874   453.E-03
  OSSO-CUT-1        1752        144   458.E-03
  OSSO-CUT-1        1752        878   458.E-03
  OSSO-CUT-1        1753        144   474.E-03
  OSSO-CUT-1        1753        336   474.E-03
  OSSO-CUT-1        1754        144   469.E-03
  OSSO-CUT-1        1754        875   469.E-03
  OSSO-CUT-1        1755        145   435.E-03
  OSSO-CUT-1        1755        874   435.E-03
  OSSO-CUT-1        1756        145   417.E-03
  OSSO-CUT-1        1756        877   417.E-03
  OSSO-CUT-1        1757        145   430.E-03
  OSSO-CUT-1        1757        964   430.E-03
  OSSO-CUT-1        1758        145   447.E-03
  OSSO-CUT-1        1758        878   447.E-03
  OSSO-CUT-1        1759        146   430.E-03
  OSSO-CUT-1        1759       1004   430.E-03
  OSSO-CUT-1        1760        146   424.E-03
  OSSO-CUT-1        1760        998   424.E-03
  OSSO-CUT-1        1761        146   420.E-03
  OSSO-CUT-1        1761       1000   420.E-03
  OSSO-CUT-1        1762        147   474.E-03
  OSSO-CUT-1        1762        949   474.E-03
  OSSO-CUT-1        1763        147   484.E-03
  OSSO-CUT-1        1763       1034   484.E-03
  OSSO-CUT-1        1764        147   489.E-03
  OSSO-CUT-1        1764        941   489.E-03
  OSSO-CUT-1        1765        147   480.E-03
  OSSO-CUT-1        1765        336   480.E-03
  OSSO-CUT-1        1766        148   502.E-03
  OSSO-CUT-1        1766        887   502.E-03
  OSSO-CUT-1        1767        148   500.E-03
  OSSO-CUT-1        1767        886   500.E-03
  OSSO-CUT-1        1768        148   508.E-03
  OSSO-CUT-1        1768        985   508.E-03
  OSSO-CUT-1        1769        148   510.E-03
  OSSO-CUT-1        1769       1037   510.E-03
  OSSO-CUT-1        1770        149   520.E-03
  OSSO-CUT-1        1770       1037   520.E-03
  OSSO-CUT-1        1771        149   514.E-03
  OSSO-CUT-1        1771        985   514.E-03
  OSSO-CUT-1        1772        149   519.E-03
  OSSO-CUT-1        1772        321   519.E-03
  OSSO-CUT-1        1773        149   525.E-03
  OSSO-CUT-1        1773       1007   525.E-03
  OSSO-CUT-1        1774        150   564.E-03
  OSSO-CUT-1        1774        969   564.E-03
  OSSO-CUT-1        1775        150   566.E-03
  OSSO-CUT-1        1775        988   566.E-03
  OSSO-CUT-1        1776        150   578.E-03
  OSSO-CUT-1        1776       1122   578.E-03
  OSSO-CUT-1        1777        151   562.E-03
  OSSO-CUT-1        1777        857   562.E-03
  OSSO-CUT-1        1778        151   569.E-03
  OSSO-CUT-1        1778        374   569.E-03
  OSSO-CUT-1        1779        151   584.E-03
  OSSO-CUT-1        1779       1013   584.E-03
  OSSO-CUT-1        1780        151   578.E-03
  OSSO-CUT-1        1780       1126   578.E-03
  OSSO-CUT-1        1781        152   648.E-03
  OSSO-CUT-1        1781        799   648.E-03
  OSSO-CUT-1        1782        152   623.E-03
  OSSO-CUT-1        1782       1014   623.E-03
  OSSO-CUT-1        1783        152   620.E-03
  OSSO-CUT-1        1783        913   620.E-03
  OSSO-CUT-1        1784        152   644.E-03
  OSSO-CUT-1        1784        860   644.E-03
  OSSO-CUT-1        1785        153   544.E-03
  OSSO-CUT-1        1785        484   544.E-03
  OSSO-CUT-1        1786        153   547.E-03
  OSSO-CUT-1        1786       1097   547.E-03
  OSSO-CUT-1        1787        153   514.E-03
  OSSO-CUT-1        1787        605   514.E-03
  OSSO-CUT-1        1788        153   510.E-03
  OSSO-CUT-1        1788        604   510.E-03
  OSSO-CUT-1        1789        154   713.E-03
  OSSO-CUT-1        1789        784   713.E-03
  OSSO-CUT-1        1790        154   674.E-03
  OSSO-CUT-1        1790        639   674.E-03
  OSSO-CUT-1        1791        154   705.E-03
  OSSO-CUT-1        1791        482   705.E-03
  OSSO-CUT-1        1792        154   746.E-03
  OSSO-CUT-1        1792        603   746.E-03
  OSSO-CUT-1        1793        155   139.E-03
  OSSO-CUT-1        1793        430   139.E-03
  OSSO-CUT-1        1794        155   189.E-03
  OSSO-CUT-1        1795        155   194.E-03
  OSSO-CUT-1        1795        431   194.E-03
  OSSO-CUT-1        1796        155   170.E-03
  OSSO-CUT-1        1796        156   170.E-03
  OSSO-CUT-1        1797        156   210.E-03
  OSSO-CUT-1        1797        505   210.E-03
  OSSO-CUT-1        1798        157   297.E-03
  OSSO-CUT-1        1798        627   297.E-03
  OSSO-CUT-1        1799        157   280.E-03
  OSSO-CUT-1        1799        684   280.E-03
  OSSO-CUT-1        1800        157   298.E-03
  OSSO-CUT-1        1800        507   298.E-03
  OSSO-CUT-1        1801        157   308.E-03
  OSSO-CUT-1        1801        377   308.E-03
  OSSO-CUT-1        1802        158   332.E-03
  OSSO-CUT-1        1802        727   332.E-03
  OSSO-CUT-1        1803        158   334.E-03
  OSSO-CUT-1        1803       1085   334.E-03
  OSSO-CUT-1        1804        158   337.E-03
  OSSO-CUT-1        1804        162   337.E-03
  OSSO-CUT-1        1805        158   331.E-03
  OSSO-CUT-1        1805        606   331.E-03
  OSSO-CUT-1        1806        159   302.E-03
  OSSO-CUT-1        1806        489   302.E-03
  OSSO-CUT-1        1807        159   311.E-03
  OSSO-CUT-1        1807        383   311.E-03
  OSSO-CUT-1        1808        159   290.E-03
  OSSO-CUT-1        1808        755   290.E-03
  OSSO-CUT-1        1809        159   277.E-03
  OSSO-CUT-1        1809        486   277.E-03
  OSSO-CUT-1        1810        160   327.E-03
  OSSO-CUT-1        1810        438   327.E-03
  OSSO-CUT-1        1811        160   327.E-03
  OSSO-CUT-1        1811        488   327.E-03
  OSSO-CUT-1        1812        160   290.E-03
  OSSO-CUT-1        1812        437   290.E-03
  OSSO-CUT-1        1813        160   288.E-03
  OSSO-CUT-1        1814        161   271.E-03
  OSSO-CUT-1        1814        611   271.E-03
  OSSO-CUT-1        1815        161   285.E-03
  OSSO-CUT-1        1815        507   285.E-03
  OSSO-CUT-1        1816        161   265.E-03
  OSSO-CUT-1        1816        684   265.E-03
  OSSO-CUT-1        1817        161   243.E-03
  OSSO-CUT-1        1817        789   243.E-03
  OSSO-CUT-1        1818        162   352.E-03
  OSSO-CUT-1        1818        669   352.E-03
  OSSO-CUT-1        1819        162   355.E-03
  OSSO-CUT-1        1819        382   355.E-03
  OSSO-CUT-1        1820        162   333.E-03
  OSSO-CUT-1        1820        598   333.E-03
  OSSO-CUT-1        1821        163   318.E-03
  OSSO-CUT-1        1821        383   318.E-03
  OSSO-CUT-1        1822        163   326.E-03
  OSSO-CUT-1        1822        727   326.E-03
  OSSO-CUT-1        1823        163   320.E-03
  OSSO-CUT-1        1823        606   320.E-03
  OSSO-CUT-1        1824        163   307.E-03
  OSSO-CUT-1        1824        755   307.E-03
  OSSO-CUT-1        1825        164   256.E-03
  OSSO-CUT-1        1825        486   256.E-03
  OSSO-CUT-1        1826        164   280.E-03
  OSSO-CUT-1        1826        755   280.E-03
  OSSO-CUT-1        1827        164   275.E-03
  OSSO-CUT-1        1827        436   275.E-03
  OSSO-CUT-1        1828        164   245.E-03
  OSSO-CUT-1        1829        165   379.E-03
  OSSO-CUT-1        1829        509   379.E-03
  OSSO-CUT-1        1830        165   379.E-03
  OSSO-CUT-1        1830        432   379.E-03
  OSSO-CUT-1        1831        165   447.E-03
  OSSO-CUT-1        1832        165   439.E-03
  OSSO-CUT-1        1832        166   439.E-03
  OSSO-CUT-1        1833        166   517.E-03
  OSSO-CUT-1        1834        166   502.E-03
  OSSO-CUT-1        1834        434   502.E-03
  OSSO-CUT-1        1835        166   433.E-03
  OSSO-CUT-1        1835        508   433.E-03
  OSSO-CUT-1        1836        167   329.E-03
  OSSO-CUT-1        1836        436   329.E-03
  OSSO-CUT-1        1837        167   389.E-03
  OSSO-CUT-1        1837        485   389.E-03
  OSSO-CUT-1        1838        167   423.E-03
  OSSO-CUT-1        1838        435   423.E-03
  OSSO-CUT-1        1839        167   364.E-03
  OSSO-CUT-1        1840        168   347.E-03
  OSSO-CUT-1        1840        485   347.E-03
  OSSO-CUT-1        1841        168   314.E-03
  OSSO-CUT-1        1841        436   314.E-03
  OSSO-CUT-1        1842        168   302.E-03
  OSSO-CUT-1        1842        755   302.E-03
  OSSO-CUT-1        1843        168   328.E-03
  OSSO-CUT-1        1843        606   328.E-03
  OSSO-CUT-1        1844        169   683.E-03
  OSSO-CUT-1        1844        170   683.E-03
  OSSO-CUT-1        1845        169   570.E-03
  OSSO-CUT-1        1845        487   570.E-03
  OSSO-CUT-1        1846        169   580.E-03
  OSSO-CUT-1        1846        434   580.E-03
  OSSO-CUT-1        1847        169   705.E-03
  OSSO-CUT-1        1848        170   586.E-03
  OSSO-CUT-1        1848        435   586.E-03
  OSSO-CUT-1        1849        170   928.E-03
  OSSO-CUT-1        1850        170   830.E-03
  OSSO-CUT-1        1851        171   697.E-03
  OSSO-CUT-1        1851        440   697.E-03
  OSSO-CUT-1        1852        171   731.E-03
  OSSO-CUT-1        1853        171   808.E-03
  OSSO-CUT-1        1853        481   808.E-03
  OSSO-CUT-1        1854        171   776.E-03
  OSSO-CUT-1        1854        172   776.E-03
  OSSO-CUT-1        1855        172   844.E-03
  OSSO-CUT-1        1855        483   844.E-03
  OSSO-CUT-1        1856        172   799.E-03
  OSSO-CUT-1        1856        603   799.E-03
  OSSO-CUT-1        1857        172   732.E-03
  OSSO-CUT-1        1857        482   732.E-03
  OSSO-CUT-1        1858        173   867.E-03
  OSSO-CUT-1        1858        386   867.E-03
  OSSO-CUT-1        1859        173   866.E-03
  OSSO-CUT-1        1859        578   866.E-03
  OSSO-CUT-1        1860        173   802.E-03
  OSSO-CUT-1        1860        174   802.E-03
  OSSO-CUT-1        1861        174   770.E-03
  OSSO-CUT-1        1861        723   770.E-03
  OSSO-CUT-1        1862        174   762.E-03
  OSSO-CUT-1        1862        373   762.E-03
  OSSO-CUT-1        1863        174   810.E-03
  OSSO-CUT-1        1863        578   810.E-03
  OSSO-CUT-1        1864        175   635.E-03
  OSSO-CUT-1        1864        369   635.E-03
  OSSO-CUT-1        1865        175   649.E-03
  OSSO-CUT-1        1865        585   649.E-03
  OSSO-CUT-1        1866        175   681.E-03
  OSSO-CUT-1        1866        375   681.E-03
  OSSO-CUT-1        1867        175   670.E-03
  OSSO-CUT-1        1867        376   670.E-03
  OSSO-CUT-1        1868        176   571.E-03
  OSSO-CUT-1        1868        370   571.E-03
  OSSO-CUT-1        1869        176   546.E-03
  OSSO-CUT-1        1869        633   546.E-03
  OSSO-CUT-1        1870        176   567.E-03
  OSSO-CUT-1        1870        648   567.E-03
  OSSO-CUT-1        1871        176   590.E-03
  OSSO-CUT-1        1871        369   590.E-03
  OSSO-CUT-1        1872        177   470.E-03
  OSSO-CUT-1        1872        787   470.E-03
  OSSO-CUT-1        1873        177   477.E-03
  OSSO-CUT-1        1873        363   477.E-03
  OSSO-CUT-1        1874        177   452.E-03
  OSSO-CUT-1        1874        618   452.E-03
  OSSO-CUT-1        1875        177   443.E-03
  OSSO-CUT-1        1875        354   443.E-03
  OSSO-CUT-1        1876        178   353.E-03
  OSSO-CUT-1        1876        344   353.E-03
  OSSO-CUT-1        1877        178   324.E-03
  OSSO-CUT-1        1877        680   324.E-03
  OSSO-CUT-1        1878        178   334.E-03
  OSSO-CUT-1        1878        766   334.E-03
  OSSO-CUT-1        1879        178   364.E-03
  OSSO-CUT-1        1879        738   364.E-03
  OSSO-CUT-1        1880        179   300.E-03
  OSSO-CUT-1        1880       1106   300.E-03
  OSSO-CUT-1        1881        179   315.E-03
  OSSO-CUT-1        1881        834   315.E-03
  OSSO-CUT-1        1882        179   274.E-03
  OSSO-CUT-1        1882        189   274.E-03
  OSSO-CUT-1        1883        179   259.E-03
  OSSO-CUT-1        1883        890   259.E-03
  OSSO-CUT-1        1884        180   351.E-03
  OSSO-CUT-1        1884        766   351.E-03
  OSSO-CUT-1        1885        180   357.E-03
  OSSO-CUT-1        1885        834   357.E-03
  OSSO-CUT-1        1886        180   379.E-03
  OSSO-CUT-1        1886        877   379.E-03
  OSSO-CUT-1        1887        180   372.E-03
  OSSO-CUT-1        1887        738   372.E-03
  OSSO-CUT-1        1888        181   962.E-03
  OSSO-CUT-1        1888        481   962.E-03
  OSSO-CUT-1        1889        181         1.
  OSSO-CUT-1        1890        181         1.
  OSSO-CUT-1        1890        441         1.
  OSSO-CUT-1        1891        181         1.
  OSSO-CUT-1        1891        182         1.
  OSSO-CUT-1        1892        182         1.
  OSSO-CUT-1        1892        528         1.
  OSSO-CUT-1        1893        182         1.
  OSSO-CUT-1        1893        577         1.
  OSSO-CUT-1        1894        182         1.
  OSSO-CUT-1        1894        483         1.
  OSSO-CUT-1        1895        183   893.E-03
  OSSO-CUT-1        1895        530   893.E-03
  OSSO-CUT-1        1896        183   955.E-03
  OSSO-CUT-1        1896        529   955.E-03
  OSSO-CUT-1        1897        183   942.E-03
  OSSO-CUT-1        1898        183   875.E-03
  OSSO-CUT-1        1898        184   875.E-03
  OSSO-CUT-1        1899        184   820.E-03
  OSSO-CUT-1        1899        381   820.E-03
  OSSO-CUT-1        1900        184   864.E-03
  OSSO-CUT-1        1901        184   805.E-03
  OSSO-CUT-1        1901        443   805.E-03
  OSSO-CUT-1        1902        185   637.E-03
  OSSO-CUT-1        1902        533   637.E-03
  OSSO-CUT-1        1903        185   677.E-03
  OSSO-CUT-1        1903        444   677.E-03
  OSSO-CUT-1        1904        185   662.E-03
  OSSO-CUT-1        1905        185   618.E-03
  OSSO-CUT-1        1905        445   618.E-03
  OSSO-CUT-1        1906        186   404.E-03
  OSSO-CUT-1        1906        525   404.E-03
  OSSO-CUT-1        1907        186   435.E-03
  OSSO-CUT-1        1907        618   435.E-03
  OSSO-CUT-1        1908        186   451.E-03
  OSSO-CUT-1        1908        532   451.E-03
  OSSO-CUT-1        1909        186   423.E-03
  OSSO-CUT-1        1909        187   423.E-03
  OSSO-CUT-1        1910        187   448.E-03
  OSSO-CUT-1        1910        364   448.E-03
  OSSO-CUT-1        1911        187   422.E-03
  OSSO-CUT-1        1912        187   393.E-03
  OSSO-CUT-1        1912        446   393.E-03
  OSSO-CUT-1        1913        188   313.E-03
  OSSO-CUT-1        1913        192   313.E-03
  OSSO-CUT-1        1914        188   350.E-03
  OSSO-CUT-1        1914        620   350.E-03
  OSSO-CUT-1        1915        188   357.E-03
  OSSO-CUT-1        1915        525   357.E-03
  OSSO-CUT-1        1916        188   324.E-03
  OSSO-CUT-1        1916        190   324.E-03
  OSSO-CUT-1        1917        189   252.E-03
  OSSO-CUT-1        1917        835   252.E-03
  OSSO-CUT-1        1918        189   310.E-03
  OSSO-CUT-1        1918        766   310.E-03
  OSSO-CUT-1        1919        189   288.E-03
  OSSO-CUT-1        1919        680   288.E-03
  OSSO-CUT-1        1920        190   340.E-03
  OSSO-CUT-1        1920        446   340.E-03
  OSSO-CUT-1        1921        190   311.E-03
  OSSO-CUT-1        1922        190   289.E-03
  OSSO-CUT-1        1922        345   289.E-03
  OSSO-CUT-1        1923        191   233.E-03
  OSSO-CUT-1        1923        679   233.E-03
  OSSO-CUT-1        1924        191   239.E-03
  OSSO-CUT-1        1924        345   239.E-03
  OSSO-CUT-1        1925        191   204.E-03
  OSSO-CUT-1        1926        191   191.E-03
  OSSO-CUT-1        1926        447   191.E-03
  OSSO-CUT-1        1927        192   272.E-03
  OSSO-CUT-1        1927        679   272.E-03
  OSSO-CUT-1        1928        192   312.E-03
  OSSO-CUT-1        1928        622   312.E-03
  OSSO-CUT-1        1929        192   277.E-03
  OSSO-CUT-1        1929        345   277.E-03
  OSSO-CUT-1        1930        193   104.E-03
  OSSO-CUT-1        1931        193   100.E-03
  OSSO-CUT-1        1931        448   100.E-03
  OSSO-CUT-1        1932        193   153.E-03
  OSSO-CUT-1        1932        872   153.E-03
  OSSO-CUT-1        1933        193   146.E-03
  OSSO-CUT-1        1933        447   146.E-03
  OSSO-CUT-1        1934        194   240.E-03
  OSSO-CUT-1        1935        194   197.E-03
  OSSO-CUT-1        1935        519   197.E-03
  OSSO-CUT-1        1936        195   202.E-03
  OSSO-CUT-1        1936        402   202.E-03
  OSSO-CUT-1        1937        195   200.E-03
  OSSO-CUT-1        1937        612   200.E-03
  OSSO-CUT-1        1938        195   225.E-03
  OSSO-CUT-1        1938        524   225.E-03
  OSSO-CUT-1        1939        196   268.E-03
  OSSO-CUT-1        1939        523   268.E-03
  OSSO-CUT-1        1940        196   257.E-03
  OSSO-CUT-1        1940        615   257.E-03
  OSSO-CUT-1        1941        196   249.E-03
  OSSO-CUT-1        1941        616   249.E-03
  OSSO-CUT-1        1942        196   261.E-03
  OSSO-CUT-1        1942        522   261.E-03
  OSSO-CUT-1        1943        197   323.E-03
  OSSO-CUT-1        1943        527   323.E-03
  OSSO-CUT-1        1944        197   321.E-03
  OSSO-CUT-1        1944        245   321.E-03
  OSSO-CUT-1        1945        197   344.E-03
  OSSO-CUT-1        1946        197   345.E-03
  OSSO-CUT-1        1946        204   345.E-03
  OSSO-CUT-1        1947        198   376.E-03
  OSSO-CUT-1        1947        239   376.E-03
  OSSO-CUT-1        1948        198   409.E-03
  OSSO-CUT-1        1948        207   409.E-03
  OSSO-CUT-1        1949        198   395.E-03
  OSSO-CUT-1        1949        571   395.E-03
  OSSO-CUT-1        1950        198   363.E-03
  OSSO-CUT-1        1950        677   363.E-03
  OSSO-CUT-1        1951        199   381.E-03
  OSSO-CUT-1        1951        571   381.E-03
  OSSO-CUT-1        1952        199   368.E-03
  OSSO-CUT-1        1952        570   368.E-03
  OSSO-CUT-1        1953        199   337.E-03
  OSSO-CUT-1        1953        709   337.E-03
  OSSO-CUT-1        1954        199   351.E-03
  OSSO-CUT-1        1954        677   351.E-03
  OSSO-CUT-1        1955        200   273.E-03
  OSSO-CUT-1        1955        810   273.E-03
  OSSO-CUT-1        1956        200   252.E-03
  OSSO-CUT-1        1956        937   252.E-03
  OSSO-CUT-1        1957        200   281.E-03
  OSSO-CUT-1        1957       1115   281.E-03
  OSSO-CUT-1        1958        200   303.E-03
  OSSO-CUT-1        1958        666   303.E-03
  OSSO-CUT-1        1959        201   275.E-03
  OSSO-CUT-1        1959        624   275.E-03
  OSSO-CUT-1        1960        201   261.E-03
  OSSO-CUT-1        1960        246   261.E-03
  OSSO-CUT-1        1961        201   249.E-03
  OSSO-CUT-1        1961        700   249.E-03
  OSSO-CUT-1        1962        201   262.E-03
  OSSO-CUT-1        1962        202   262.E-03
  OSSO-CUT-1        1963        202   272.E-03
  OSSO-CUT-1        1963        614   272.E-03
  OSSO-CUT-1        1964        202   264.E-03
  OSSO-CUT-1        1964       1079   264.E-03
  OSSO-CUT-1        1965        203   288.E-03
  OSSO-CUT-1        1965        614   288.E-03
  OSSO-CUT-1        1966        203   287.E-03
  OSSO-CUT-1        1966        523   287.E-03
  OSSO-CUT-1        1967        203   303.E-03
  OSSO-CUT-1        1967        245   303.E-03
  OSSO-CUT-1        1968        203   303.E-03
  OSSO-CUT-1        1968        527   303.E-03
  OSSO-CUT-1        1969        204   343.E-03
  OSSO-CUT-1        1969        205   343.E-03
  OSSO-CUT-1        1970        204   373.E-03
  OSSO-CUT-1        1971        204   370.E-03
  OSSO-CUT-1        1971        206   370.E-03
  OSSO-CUT-1        1972        205   335.E-03
  OSSO-CUT-1        1972        526   335.E-03
  OSSO-CUT-1        1973        205   312.E-03
  OSSO-CUT-1        1973        613   312.E-03
  OSSO-CUT-1        1974        205   319.E-03
  OSSO-CUT-1        1974        527   319.E-03
  OSSO-CUT-1        1975        206   403.E-03
  OSSO-CUT-1        1976        206   397.E-03
  OSSO-CUT-1        1976        208   397.E-03
  OSSO-CUT-1        1977        206   365.E-03
  OSSO-CUT-1        1977        526   365.E-03
  OSSO-CUT-1        1978        207   464.E-03
  OSSO-CUT-1        1979        207   448.E-03
  OSSO-CUT-1        1979        678   448.E-03
  OSSO-CUT-1        1980        207   424.E-03
  OSSO-CUT-1        1980        208   424.E-03
  OSSO-CUT-1        1981        208   434.E-03
  OSSO-CUT-1        1982        208   387.E-03
  OSSO-CUT-1        1982        239   387.E-03
  OSSO-CUT-1        1983        209   852.E-03
  OSSO-CUT-1        1983        493   852.E-03
  OSSO-CUT-1        1984        209   657.E-03
  OSSO-CUT-1        1984        458   657.E-03
  OSSO-CUT-1        1985        209   712.E-03
  OSSO-CUT-1        1986        209   849.E-03
  OSSO-CUT-1        1986        210   849.E-03
  OSSO-CUT-1        1987        210         1.
  OSSO-CUT-1        1988        210         1.
  OSSO-CUT-1        1988        211         1.
  OSSO-CUT-1        1989        211         1.
  OSSO-CUT-1        1989        391         1.
  OSSO-CUT-1        1990        211   836.E-03
  OSSO-CUT-1        1990        641   836.E-03
  OSSO-CUT-1        1991        211         2.
  OSSO-CUT-1        1992        212         1.
  OSSO-CUT-1        1992        391         1.
  OSSO-CUT-1        1993        212         2.
  OSSO-CUT-1        1994        212   959.E-03
  OSSO-CUT-1        1994        214   959.E-03
  OSSO-CUT-1        1995        212   633.E-03
  OSSO-CUT-1        1995        580   633.E-03
  OSSO-CUT-1        1996        213   674.E-03
  OSSO-CUT-1        1996        491   674.E-03
  OSSO-CUT-1        1997        213   573.E-03
  OSSO-CUT-1        1997        492   573.E-03
  OSSO-CUT-1        1998        213   507.E-03
  OSSO-CUT-1        1998        636   507.E-03
  OSSO-CUT-1        1999        214   816.E-03
  OSSO-CUT-1        1999        491   816.E-03
  OSSO-CUT-1        2000        214         1.
  OSSO-CUT-1        2001        215   397.E-03
  OSSO-CUT-1        2001        594   397.E-03
  OSSO-CUT-1        2002        215   451.E-03
  OSSO-CUT-1        2002        636   451.E-03
  OSSO-CUT-1        2003        215   498.E-03
  OSSO-CUT-1        2003        492   498.E-03
  OSSO-CUT-1        2004        215   443.E-03
  OSSO-CUT-1        2004       1082   443.E-03
  OSSO-CUT-1        2005        216   185.E-03
  OSSO-CUT-1        2005        748   185.E-03
  OSSO-CUT-1        2006        216   186.E-03
  OSSO-CUT-1        2006        780   186.E-03
  OSSO-CUT-1        2007        216   150.E-03
  OSSO-CUT-1        2007        827   150.E-03
  OSSO-CUT-1        2008        216   149.E-03
  OSSO-CUT-1        2008        816   149.E-03
  OSSO-CUT-1        2009        217   187.E-03
  OSSO-CUT-1        2009        600   187.E-03
  OSSO-CUT-1        2010        217   154.E-03
  OSSO-CUT-1        2010        691   154.E-03
  OSSO-CUT-1        2011        217   151.E-03
  OSSO-CUT-1        2011        827   151.E-03
  OSSO-CUT-1        2012        217   185.E-03
  OSSO-CUT-1        2012        780   185.E-03
  OSSO-CUT-1        2013        218   320.E-03
  OSSO-CUT-1        2013        714   320.E-03
  OSSO-CUT-1        2014        218   353.E-03
  OSSO-CUT-1        2014        219   353.E-03
  OSSO-CUT-1        2015        218   430.E-03
  OSSO-CUT-1        2015        636   430.E-03
  OSSO-CUT-1        2016        219   247.E-03
  OSSO-CUT-1        2016        713   247.E-03
  OSSO-CUT-1        2017        219   272.E-03
  OSSO-CUT-1        2017        813   272.E-03
  OSSO-CUT-1        2018        219   360.E-03
  OSSO-CUT-1        2018        580   360.E-03
  OSSO-CUT-1        2019        220   226.E-03
  OSSO-CUT-1        2019        780   226.E-03
  OSSO-CUT-1        2020        220   262.E-03
  OSSO-CUT-1        2020        705   262.E-03
  OSSO-CUT-1        2021        220   245.E-03
  OSSO-CUT-1        2021        601   245.E-03
  OSSO-CUT-1        2022        220   210.E-03
  OSSO-CUT-1        2022        600   210.E-03
  OSSO-CUT-1        2023        221   260.E-03
  OSSO-CUT-1        2023        635   260.E-03
  OSSO-CUT-1        2024        221   317.E-03
  OSSO-CUT-1        2024        594   317.E-03
  OSSO-CUT-1        2025        222   517.E-03
  OSSO-CUT-1        2025        497   517.E-03
  OSSO-CUT-1        2026        222   487.E-03
  OSSO-CUT-1        2026        223   487.E-03
  OSSO-CUT-1        2027        222   421.E-03
  OSSO-CUT-1        2027        650   421.E-03
  OSSO-CUT-1        2028        223   527.E-03
  OSSO-CUT-1        2028        642   527.E-03
  OSSO-CUT-1        2029        223   440.E-03
  OSSO-CUT-1        2029        743   440.E-03
  OSSO-CUT-1        2030        224   119.E-03
  OSSO-CUT-1        2030        476   119.E-03
  OSSO-CUT-1        2031        224   123.E-03
  OSSO-CUT-1        2031        397   123.E-03
  OSSO-CUT-1        2032        224   143.E-03
  OSSO-CUT-1        2033        225    79.E-03
  OSSO-CUT-1        2033        399    79.E-03
  OSSO-CUT-1        2034        225    75.E-03
  OSSO-CUT-1        2034        575    75.E-03
  OSSO-CUT-1        2035        225    91.E-03
  OSSO-CUT-1        2035        540    91.E-03
  OSSO-CUT-1        2036        226    68.E-03
  OSSO-CUT-1        2036        728    68.E-03
  OSSO-CUT-1        2037        226    90.E-03
  OSSO-CUT-1        2037        735    90.E-03
  OSSO-CUT-1        2038        226    87.E-03
  OSSO-CUT-1        2038        664    87.E-03
  OSSO-CUT-1        2039        227    79.E-03
  OSSO-CUT-1        2039        805    79.E-03
  OSSO-CUT-1        2040        227    72.E-03
  OSSO-CUT-1        2040        765    72.E-03
  OSSO-CUT-1        2041        227    87.E-03
  OSSO-CUT-1        2041        917    87.E-03
  OSSO-CUT-1        2042        227    95.E-03
  OSSO-CUT-1        2042        915    95.E-03
  OSSO-CUT-1        2043        228    96.E-03
  OSSO-CUT-1        2043        873    96.E-03
  OSSO-CUT-1        2044        228    91.E-03
  OSSO-CUT-1        2044        735    91.E-03
  OSSO-CUT-1        2045        229   155.E-03
  OSSO-CUT-1        2045        943   155.E-03
  OSSO-CUT-1        2046        229   192.E-03
  OSSO-CUT-1        2046        847   192.E-03
  OSSO-CUT-1        2047        229   173.E-03
  OSSO-CUT-1        2047        846   173.E-03
  OSSO-CUT-1        2048        229   138.E-03
  OSSO-CUT-1        2048        927   138.E-03
  OSSO-CUT-1        2049        230    87.E-03
  OSSO-CUT-1        2049        805    87.E-03
  OSSO-CUT-1        2050        230   108.E-03
  OSSO-CUT-1        2050        915   108.E-03
  OSSO-CUT-1        2051        230   109.E-03
  OSSO-CUT-1        2051        927   109.E-03
  OSSO-CUT-1        2052        231    78.E-03
  OSSO-CUT-1        2052        388    78.E-03
  OSSO-CUT-1        2053        231    72.E-03
  OSSO-CUT-1        2053        242    72.E-03
  OSSO-CUT-1        2054        231    67.E-03
  OSSO-CUT-1        2054        552    67.E-03
  OSSO-CUT-1        2055        231    74.E-03
  OSSO-CUT-1        2055        553    74.E-03
  OSSO-CUT-1        2056        232   102.E-03
  OSSO-CUT-1        2056        817   102.E-03
  OSSO-CUT-1        2057        232   100.E-03
  OSSO-CUT-1        2057        916   100.E-03
  OSSO-CUT-1        2058        232    81.E-03
  OSSO-CUT-1        2058        235    81.E-03
  OSSO-CUT-1        2059        232    83.E-03
  OSSO-CUT-1        2059        883    83.E-03
  OSSO-CUT-1        2060        233   124.E-03
  OSSO-CUT-1        2060        234   124.E-03
  OSSO-CUT-1        2061        233   122.E-03
  OSSO-CUT-1        2061        916   122.E-03
  OSSO-CUT-1        2062        233   145.E-03
  OSSO-CUT-1        2062       1100   145.E-03
  OSSO-CUT-1        2063        233   145.E-03
  OSSO-CUT-1        2063        867   145.E-03
  OSSO-CUT-1        2064        234   134.E-03
  OSSO-CUT-1        2064        867   134.E-03
  OSSO-CUT-1        2065        234   116.E-03
  OSSO-CUT-1        2065        915   116.E-03
  OSSO-CUT-1        2066        234   107.E-03
  OSSO-CUT-1        2066        917   107.E-03
  OSSO-CUT-1        2067        235    83.E-03
  OSSO-CUT-1        2067        917    83.E-03
  OSSO-CUT-1        2068        235    68.E-03
  OSSO-CUT-1        2068        765    68.E-03
  OSSO-CUT-1        2069        235    67.E-03
  OSSO-CUT-1        2069        729    67.E-03
  OSSO-CUT-1        2070        236   107.E-03
  OSSO-CUT-1        2070        817   107.E-03
  OSSO-CUT-1        2071        236    90.E-03
  OSSO-CUT-1        2071        883    90.E-03
  OSSO-CUT-1        2072        236   113.E-03
  OSSO-CUT-1        2072        807   113.E-03
  OSSO-CUT-1        2073        237   175.E-03
  OSSO-CUT-1        2073        238   175.E-03
  OSSO-CUT-1        2074        237   168.E-03
  OSSO-CUT-1        2074        879   168.E-03
  OSSO-CUT-1        2075        237   194.E-03
  OSSO-CUT-1        2075        706   194.E-03
  OSSO-CUT-1        2076        237   201.E-03
  OSSO-CUT-1        2076        871   201.E-03
  OSSO-CUT-1        2077        238   192.E-03
  OSSO-CUT-1        2077        801   192.E-03
  OSSO-CUT-1        2078        238   170.E-03
  OSSO-CUT-1        2078       1100   170.E-03
  OSSO-CUT-1        2079        238   153.E-03
  OSSO-CUT-1        2079        870   153.E-03
  OSSO-CUT-1        2080        239   355.E-03
  OSSO-CUT-1        2080        526   355.E-03
  OSSO-CUT-1        2081        239   344.E-03
  OSSO-CUT-1        2081        609   344.E-03
  OSSO-CUT-1        2082        240   306.E-03
  OSSO-CUT-1        2082        609   306.E-03
  OSSO-CUT-1        2083        240   295.E-03
  OSSO-CUT-1        2083        708   295.E-03
  OSSO-CUT-1        2084        240   271.E-03
  OSSO-CUT-1        2084        768   271.E-03
  OSSO-CUT-1        2085        240   282.E-03
  OSSO-CUT-1        2085       1073   282.E-03
  OSSO-CUT-1        2086        241    77.E-03
  OSSO-CUT-1        2086        390    77.E-03
  OSSO-CUT-1        2087        241    75.E-03
  OSSO-CUT-1        2087        554    75.E-03
  OSSO-CUT-1        2088        241    79.E-03
  OSSO-CUT-1        2089        242    73.E-03
  OSSO-CUT-1        2089        554    73.E-03
  OSSO-CUT-1        2090        242    69.E-03
  OSSO-CUT-1        2090        667    69.E-03
  OSSO-CUT-1        2091        243   148.E-03
  OSSO-CUT-1        2091        400   148.E-03
  OSSO-CUT-1        2092        243   172.E-03
  OSSO-CUT-1        2092        695   172.E-03
  OSSO-CUT-1        2093        243   170.E-03
  OSSO-CUT-1        2093        244   170.E-03
  OSSO-CUT-1        2094        243   146.E-03
  OSSO-CUT-1        2094        558   146.E-03
  OSSO-CUT-1        2095        244   191.E-03
  OSSO-CUT-1        2095        706   191.E-03
  OSSO-CUT-1        2096        244   169.E-03
  OSSO-CUT-1        2096        879   169.E-03
  OSSO-CUT-1        2097        244   193.E-03
  OSSO-CUT-1        2097        599   193.E-03
  OSSO-CUT-1        2098        245   298.E-03
  OSSO-CUT-1        2098        455   298.E-03
  OSSO-CUT-1        2099        245   317.E-03
  OSSO-CUT-1        2100        246   277.E-03
  OSSO-CUT-1        2100        613   277.E-03
  OSSO-CUT-1        2101        246   260.E-03
  OSSO-CUT-1        2101        804   260.E-03
  OSSO-CUT-1        2102        246   245.E-03
  OSSO-CUT-1        2102        696   245.E-03
  OSSO-CUT-1        2103        247   193.E-03
  OSSO-CUT-1        2103        514   193.E-03
  OSSO-CUT-1        2104        247   212.E-03
  OSSO-CUT-1        2104        451   212.E-03
  OSSO-CUT-1        2105        247   239.E-03
  OSSO-CUT-1        2106        247   220.E-03
  OSSO-CUT-1        2106        452   220.E-03
  OSSO-CUT-1        2107        248   191.E-03
  OSSO-CUT-1        2107        595   191.E-03
  OSSO-CUT-1        2108        248   164.E-03
  OSSO-CUT-1        2108        657   164.E-03
  OSSO-CUT-1        2109        249   240.E-03
  OSSO-CUT-1        2109        682   240.E-03
  OSSO-CUT-1        2110        249   238.E-03
  OSSO-CUT-1        2110        595   238.E-03
  OSSO-CUT-1        2111        249   271.E-03
  OSSO-CUT-1        2111        681   271.E-03
  OSSO-CUT-1        2112        249   273.E-03
  OSSO-CUT-1        2112        644   273.E-03
  OSSO-CUT-1        2113        250   231.E-03
  OSSO-CUT-1        2113        284   231.E-03
  OSSO-CUT-1        2114        250   253.E-03
  OSSO-CUT-1        2114        812   253.E-03
  OSSO-CUT-1        2115        250   243.E-03
  OSSO-CUT-1        2115       1109   243.E-03
  OSSO-CUT-1        2116        250   221.E-03
  OSSO-CUT-1        2116        803   221.E-03
  OSSO-CUT-1        2117        251   292.E-03
  OSSO-CUT-1        2117        951   292.E-03
  OSSO-CUT-1        2118        251   268.E-03
  OSSO-CUT-1        2118        924   268.E-03
  OSSO-CUT-1        2119        251   271.E-03
  OSSO-CUT-1        2119        842   271.E-03
  OSSO-CUT-1        2120        251   295.E-03
  OSSO-CUT-1        2120        947   295.E-03
  OSSO-CUT-1        2121        252   112.E-03
  OSSO-CUT-1        2121        404   112.E-03
  OSSO-CUT-1        2122        252   112.E-03
  OSSO-CUT-1        2122        539   112.E-03
  OSSO-CUT-1        2123        252   109.E-03
  OSSO-CUT-1        2124        253   129.E-03
  OSSO-CUT-1        2124        404   129.E-03
  OSSO-CUT-1        2125        253   148.E-03
  OSSO-CUT-1        2126        253   144.E-03
  OSSO-CUT-1        2126        475   144.E-03
  OSSO-CUT-1        2127        254   155.E-03
  OSSO-CUT-1        2127        514   155.E-03
  OSSO-CUT-1        2128        254   142.E-03
  OSSO-CUT-1        2128        512   142.E-03
  OSSO-CUT-1        2129        254   131.E-03
  OSSO-CUT-1        2129        699   131.E-03
  OSSO-CUT-1        2130        254   141.E-03
  OSSO-CUT-1        2130        621   141.E-03
  OSSO-CUT-1        2131        255   478.E-03
  OSSO-CUT-1        2132        255   521.E-03
  OSSO-CUT-1        2132        494   521.E-03
  OSSO-CUT-1        2133        256   629.E-03
  OSSO-CUT-1        2133        461   629.E-03
  OSSO-CUT-1        2134        256   557.E-03
  OSSO-CUT-1        2134        584   557.E-03
  OSSO-CUT-1        2135        256   584.E-03
  OSSO-CUT-1        2135        597   584.E-03
  OSSO-CUT-1        2136        257   533.E-03
  OSSO-CUT-1        2136        469   533.E-03
  OSSO-CUT-1        2137        257   617.E-03
  OSSO-CUT-1        2137        465   617.E-03
  OSSO-CUT-1        2138        257   528.E-03
  OSSO-CUT-1        2138        588   528.E-03
  OSSO-CUT-1        2139        258   530.E-03
  OSSO-CUT-1        2139        469   530.E-03
  OSSO-CUT-1        2140        258   504.E-03
  OSSO-CUT-1        2140        294   504.E-03
  OSSO-CUT-1        2141        258   561.E-03
  OSSO-CUT-1        2141        586   561.E-03
  OSSO-CUT-1        2142        258   584.E-03
  OSSO-CUT-1        2142        465   584.E-03
  OSSO-CUT-1        2143        259   494.E-03
  OSSO-CUT-1        2143        260   494.E-03
  OSSO-CUT-1        2144        259   522.E-03
  OSSO-CUT-1        2144        583   522.E-03
  OSSO-CUT-1        2145        259   504.E-03
  OSSO-CUT-1        2145        690   504.E-03
  OSSO-CUT-1        2146        259   477.E-03
  OSSO-CUT-1        2146        702   477.E-03
  OSSO-CUT-1        2147        260   503.E-03
  OSSO-CUT-1        2147        584   503.E-03
  OSSO-CUT-1        2148        260   462.E-03
  OSSO-CUT-1        2148        746   462.E-03
  OSSO-CUT-1        2149        260   471.E-03
  OSSO-CUT-1        2149        703   471.E-03
  OSSO-CUT-1        2150        261   410.E-03
  OSSO-CUT-1        2150       1074   410.E-03
  OSSO-CUT-1        2151        261   414.E-03
  OSSO-CUT-1        2151        289   414.E-03
  OSSO-CUT-1        2152        261   392.E-03
  OSSO-CUT-1        2152       1072   392.E-03
  OSSO-CUT-1        2153        261   389.E-03
  OSSO-CUT-1        2153        936   389.E-03
  OSSO-CUT-1        2154        262   380.E-03
  OSSO-CUT-1        2154        295   380.E-03
  OSSO-CUT-1        2155        262   402.E-03
  OSSO-CUT-1        2155        798   402.E-03
  OSSO-CUT-1        2156        262   408.E-03
  OSSO-CUT-1        2156        653   408.E-03
  OSSO-CUT-1        2157        262   386.E-03
  OSSO-CUT-1        2157        910   386.E-03
  OSSO-CUT-1        2158        263   409.E-03
  OSSO-CUT-1        2158        818   409.E-03
  OSSO-CUT-1        2159        263   422.E-03
  OSSO-CUT-1        2159        749   422.E-03
  OSSO-CUT-1        2160        263   422.E-03
  OSSO-CUT-1        2160       1021   422.E-03
  OSSO-CUT-1        2161        263   409.E-03
  OSSO-CUT-1        2161        898   409.E-03
  OSSO-CUT-1        2162        264   445.E-03
  OSSO-CUT-1        2162        960   445.E-03
  OSSO-CUT-1        2163        264   432.E-03
  OSSO-CUT-1        2163       1021   432.E-03
  OSSO-CUT-1        2164        264   439.E-03
  OSSO-CUT-1        2164        749   439.E-03
  OSSO-CUT-1        2165        264   452.E-03
  OSSO-CUT-1        2165        730   452.E-03
  OSSO-CUT-1        2166        265   430.E-03
  OSSO-CUT-1        2166       1105   430.E-03
  OSSO-CUT-1        2167        265   430.E-03
  OSSO-CUT-1        2167       1021   430.E-03
  OSSO-CUT-1        2168        265   439.E-03
  OSSO-CUT-1        2168        960   439.E-03
  OSSO-CUT-1        2169        265   438.E-03
  OSSO-CUT-1        2169        926   438.E-03
  OSSO-CUT-1        2170        266   388.E-03
  OSSO-CUT-1        2170        310   388.E-03
  OSSO-CUT-1        2171        266   395.E-03
  OSSO-CUT-1        2171        962   395.E-03
  OSSO-CUT-1        2172        266   407.E-03
  OSSO-CUT-1        2172       1045   407.E-03
  OSSO-CUT-1        2173        266   399.E-03
  OSSO-CUT-1        2173       1075   399.E-03
  OSSO-CUT-1        2174        267   366.E-03
  OSSO-CUT-1        2174        268   366.E-03
  OSSO-CUT-1        2175        267   371.E-03
  OSSO-CUT-1        2175        283   371.E-03
  OSSO-CUT-1        2176        267   383.E-03
  OSSO-CUT-1        2176        904   383.E-03
  OSSO-CUT-1        2177        267   378.E-03
  OSSO-CUT-1        2177       1104   378.E-03
  OSSO-CUT-1        2178        268   358.E-03
  OSSO-CUT-1        2178        930   358.E-03
  OSSO-CUT-1        2179        268   347.E-03
  OSSO-CUT-1        2179        858   347.E-03
  OSSO-CUT-1        2180        268   354.E-03
  OSSO-CUT-1        2180        823   354.E-03
  OSSO-CUT-1        2181        269   318.E-03
  OSSO-CUT-1        2181        645   318.E-03
  OSSO-CUT-1        2182        269   329.E-03
  OSSO-CUT-1        2182        806   329.E-03
  OSSO-CUT-1        2183        269   329.E-03
  OSSO-CUT-1        2183        858   329.E-03
  OSSO-CUT-1        2184        269   318.E-03
  OSSO-CUT-1        2184        311   318.E-03
  OSSO-CUT-1        2185        270   291.E-03
  OSSO-CUT-1        2185        644   291.E-03
  OSSO-CUT-1        2186        270   309.E-03
  OSSO-CUT-1        2186        645   309.E-03
  OSSO-CUT-1        2187        270   302.E-03
  OSSO-CUT-1        2187        311   302.E-03
  OSSO-CUT-1        2188        270   284.E-03
  OSSO-CUT-1        2188        812   284.E-03
  OSSO-CUT-1        2189        271   394.E-03
  OSSO-CUT-1        2189        970   394.E-03
  OSSO-CUT-1        2190        271   401.E-03
  OSSO-CUT-1        2190       1038   401.E-03
  OSSO-CUT-1        2191        271   410.E-03
  OSSO-CUT-1        2191       1018   410.E-03
  OSSO-CUT-1        2192        271   403.E-03
  OSSO-CUT-1        2192       1010   403.E-03
  OSSO-CUT-1        2193        272   387.E-03
  OSSO-CUT-1        2193        273   387.E-03
  OSSO-CUT-1        2194        272   385.E-03
  OSSO-CUT-1        2194        864   385.E-03
  OSSO-CUT-1        2195        272   400.E-03
  OSSO-CUT-1        2195        747   400.E-03
  OSSO-CUT-1        2196        272   402.E-03
  OSSO-CUT-1        2196       1103   402.E-03
  OSSO-CUT-1        2197        273   385.E-03
  OSSO-CUT-1        2197        855   385.E-03
  OSSO-CUT-1        2198        273   376.E-03
  OSSO-CUT-1        2198        848   376.E-03
  OSSO-CUT-1        2199        273   396.E-03
  OSSO-CUT-1        2199       1103   396.E-03
  OSSO-CUT-1        2200        274   383.E-03
  OSSO-CUT-1        2200        962   383.E-03
  OSSO-CUT-1        2201        274   375.E-03
  OSSO-CUT-1        2201        310   375.E-03
  OSSO-CUT-1        2202        274   363.E-03
  OSSO-CUT-1        2202        950   363.E-03
  OSSO-CUT-1        2203        274   371.E-03
  OSSO-CUT-1        2203        888   371.E-03
  OSSO-CUT-1        2204        275   368.E-03
  OSSO-CUT-1        2204        963   368.E-03
  OSSO-CUT-1        2205        275   361.E-03
  OSSO-CUT-1        2205        288   361.E-03
  OSSO-CUT-1        2206        275   374.E-03
  OSSO-CUT-1        2206        855   374.E-03
  OSSO-CUT-1        2207        275   381.E-03
  OSSO-CUT-1        2207        278   381.E-03
  OSSO-CUT-1        2208        276   343.E-03
  OSSO-CUT-1        2208        840   343.E-03
  OSSO-CUT-1        2209        276   355.E-03
  OSSO-CUT-1        2209        277   355.E-03
  OSSO-CUT-1        2210        276   350.E-03
  OSSO-CUT-1        2210        920   350.E-03
  OSSO-CUT-1        2211        277   368.E-03
  OSSO-CUT-1        2211        864   368.E-03
  OSSO-CUT-1        2212        277   360.E-03
  OSSO-CUT-1        2212        920   360.E-03
  OSSO-CUT-1        2213        277   363.E-03
  OSSO-CUT-1        2213        849   363.E-03
  OSSO-CUT-1        2214        278   386.E-03
  OSSO-CUT-1        2214        944   386.E-03
  OSSO-CUT-1        2215        278   393.E-03
  OSSO-CUT-1        2215        818   393.E-03
  OSSO-CUT-1        2216        278   398.E-03
  OSSO-CUT-1        2216        898   398.E-03
  OSSO-CUT-1        2217        279   377.E-03
  OSSO-CUT-1        2217        970   377.E-03
  OSSO-CUT-1        2218        279   368.E-03
  OSSO-CUT-1        2218        888   368.E-03
  OSSO-CUT-1        2219        279   358.E-03
  OSSO-CUT-1        2219        665   358.E-03
  OSSO-CUT-1        2220        279   367.E-03
  OSSO-CUT-1        2220        963   367.E-03
  OSSO-CUT-1        2221        280   332.E-03
  OSSO-CUT-1        2221        287   332.E-03
  OSSO-CUT-1        2222        280   340.E-03
  OSSO-CUT-1        2222        665   340.E-03
  OSSO-CUT-1        2223        280   334.E-03
  OSSO-CUT-1        2223        796   334.E-03
  OSSO-CUT-1        2224        281   310.E-03
  OSSO-CUT-1        2224        544   310.E-03
  OSSO-CUT-1        2225        281   298.E-03
  OSSO-CUT-1        2225        542   298.E-03
  OSSO-CUT-1        2226        281   313.E-03
  OSSO-CUT-1        2226        663   313.E-03
  OSSO-CUT-1        2227        282   318.E-03
  OSSO-CUT-1        2227        645   318.E-03
  OSSO-CUT-1        2228        282   321.E-03
  OSSO-CUT-1        2228        560   321.E-03
  OSSO-CUT-1        2229        282   331.E-03
  OSSO-CUT-1        2229        761   331.E-03
  OSSO-CUT-1        2230        282   330.E-03
  OSSO-CUT-1        2230        806   330.E-03
  OSSO-CUT-1        2231        283   357.E-03
  OSSO-CUT-1        2231        823   357.E-03
  OSSO-CUT-1        2232        283   362.E-03
  OSSO-CUT-1        2232        821   362.E-03
  OSSO-CUT-1        2233        283   376.E-03
  OSSO-CUT-1        2233        929   376.E-03
  OSSO-CUT-1        2234        284   207.E-03
  OSSO-CUT-1        2234        763   207.E-03
  OSSO-CUT-1        2235        284   214.E-03
  OSSO-CUT-1        2235        762   214.E-03
  OSSO-CUT-1        2236        284   237.E-03
  OSSO-CUT-1        2236        811   237.E-03
  OSSO-CUT-1        2237        285   123.E-03
  OSSO-CUT-1        2237        661   123.E-03
  OSSO-CUT-1        2238        285   135.E-03
  OSSO-CUT-1        2238        566   135.E-03
  OSSO-CUT-1        2239        286   141.E-03
  OSSO-CUT-1        2239        661   141.E-03
  OSSO-CUT-1        2240        286   152.E-03
  OSSO-CUT-1        2240        566   152.E-03
  OSSO-CUT-1        2241        286   175.E-03
  OSSO-CUT-1        2241        763   175.E-03
  OSSO-CUT-1        2242        286   164.E-03
  OSSO-CUT-1        2242        660   164.E-03
  OSSO-CUT-1        2243        287   326.E-03
  OSSO-CUT-1        2243        663   326.E-03
  OSSO-CUT-1        2244        287   337.E-03
  OSSO-CUT-1        2244        564   337.E-03
  OSSO-CUT-1        2245        287   322.E-03
  OSSO-CUT-1        2245        544   322.E-03
  OSSO-CUT-1        2246        288   355.E-03
  OSSO-CUT-1        2246        892   355.E-03
  OSSO-CUT-1        2247        288   346.E-03
  OSSO-CUT-1        2247        564   346.E-03
  OSSO-CUT-1        2248        288   340.E-03
  OSSO-CUT-1        2248        919   340.E-03
  OSSO-CUT-1        2249        289   439.E-03
  OSSO-CUT-1        2249        704   439.E-03
  OSSO-CUT-1        2250        289   442.E-03
  OSSO-CUT-1        2250        703   442.E-03
  OSSO-CUT-1        2251        289   416.E-03
  OSSO-CUT-1        2251        747   416.E-03
  OSSO-CUT-1        2252        290   334.E-03
  OSSO-CUT-1        2252        686   334.E-03
  OSSO-CUT-1        2253        290   345.E-03
  OSSO-CUT-1        2253       1089   345.E-03
  OSSO-CUT-1        2254        290   350.E-03
  OSSO-CUT-1        2254        909   350.E-03
  OSSO-CUT-1        2255        290   339.E-03
  OSSO-CUT-1        2255        764   339.E-03
  OSSO-CUT-1        2256        291   341.E-03
  OSSO-CUT-1        2256       1089   341.E-03
  OSSO-CUT-1        2257        291   331.E-03
  OSSO-CUT-1        2257        686   331.E-03
  OSSO-CUT-1        2258        291   329.E-03
  OSSO-CUT-1        2258       1012   329.E-03
  OSSO-CUT-1        2259        291   338.E-03
  OSSO-CUT-1        2259       1088   338.E-03
  OSSO-CUT-1        2260        292   411.E-03
  OSSO-CUT-1        2260        869   411.E-03
  OSSO-CUT-1        2261        292   416.E-03
  OSSO-CUT-1        2261        750   416.E-03
  OSSO-CUT-1        2262        292   399.E-03
  OSSO-CUT-1        2262        865   399.E-03
  OSSO-CUT-1        2263        292   395.E-03
  OSSO-CUT-1        2263        940   395.E-03
  OSSO-CUT-1        2264        293   422.E-03
  OSSO-CUT-1        2264        737   422.E-03
  OSSO-CUT-1        2265        293   430.E-03
  OSSO-CUT-1        2265       1101   430.E-03
  OSSO-CUT-1        2266        293   445.E-03
  OSSO-CUT-1        2266        831   445.E-03
  OSSO-CUT-1        2267        293   437.E-03
  OSSO-CUT-1        2267        885   437.E-03
  OSSO-CUT-1        2268        294   449.E-03
  OSSO-CUT-1        2268        750   449.E-03
  OSSO-CUT-1        2269        295   363.E-03
  OSSO-CUT-1        2269        909   363.E-03
  OSSO-CUT-1        2270        295   356.E-03
  OSSO-CUT-1        2270       1089   356.E-03
  OSSO-CUT-1        2271        295   373.E-03
  OSSO-CUT-1        2271        866   373.E-03
  OSSO-CUT-1        2272        296   314.E-03
  OSSO-CUT-1        2272        547   314.E-03
  OSSO-CUT-1        2273        296   320.E-03
  OSSO-CUT-1        2273        549   320.E-03
  OSSO-CUT-1        2274        296   320.E-03
  OSSO-CUT-1        2274       1012   320.E-03
  OSSO-CUT-1        2275        297   374.E-03
  OSSO-CUT-1        2275        897   374.E-03
  OSSO-CUT-1        2276        297   376.E-03
  OSSO-CUT-1        2276        940   376.E-03
  OSSO-CUT-1        2277        297   365.E-03
  OSSO-CUT-1        2277        972   365.E-03
  OSSO-CUT-1        2278        298   405.E-03
  OSSO-CUT-1        2278        851   405.E-03
  OSSO-CUT-1        2279        298   417.E-03
  OSSO-CUT-1        2279       1101   417.E-03
  OSSO-CUT-1        2280        298   403.E-03
  OSSO-CUT-1        2280        737   403.E-03
  OSSO-CUT-1        2281        298   391.E-03
  OSSO-CUT-1        2281        773   391.E-03
  OSSO-CUT-1        2282        299   422.E-03
  OSSO-CUT-1        2282        306   422.E-03
  OSSO-CUT-1        2283        299   410.E-03
  OSSO-CUT-1        2283        710   410.E-03
  OSSO-CUT-1        2284        299   371.E-03
  OSSO-CUT-1        2284        785   371.E-03
  OSSO-CUT-1        2285        300   179.E-03
  OSSO-CUT-1        2285        301   179.E-03
  OSSO-CUT-1        2286        300   222.E-03
  OSSO-CUT-1        2286        477   222.E-03
  OSSO-CUT-1        2287        300   248.E-03
  OSSO-CUT-1        2287        563   248.E-03
  OSSO-CUT-1        2288        300   205.E-03
  OSSO-CUT-1        2288        581   205.E-03
  OSSO-CUT-1        2289        301   124.E-03
  OSSO-CUT-1        2289        417   124.E-03
  OSSO-CUT-1        2290        301    68.E-03
  OSSO-CUT-1        2291        302   324.E-03
  OSSO-CUT-1        2291        548   324.E-03
  OSSO-CUT-1        2292        302   323.E-03
  OSSO-CUT-1        2293        302   322.E-03
  OSSO-CUT-1        2293        411   322.E-03
  OSSO-CUT-1        2294        303   329.E-03
  OSSO-CUT-1        2294        971   329.E-03
  OSSO-CUT-1        2295        303   325.E-03
  OSSO-CUT-1        2295        549   325.E-03
  OSSO-CUT-1        2296        303   323.E-03
  OSSO-CUT-1        2296        548   323.E-03
  OSSO-CUT-1        2297        304   370.E-03
  OSSO-CUT-1        2298        304   425.E-03
  OSSO-CUT-1        2298        470   425.E-03
  OSSO-CUT-1        2299        305   363.E-03
  OSSO-CUT-1        2299        822   363.E-03
  OSSO-CUT-1        2300        305   369.E-03
  OSSO-CUT-1        2300        773   369.E-03
  OSSO-CUT-1        2301        305   351.E-03
  OSSO-CUT-1        2301        707   351.E-03
  OSSO-CUT-1        2302        306   431.E-03
  OSSO-CUT-1        2302        753   431.E-03
  OSSO-CUT-1        2303        306   441.E-03
  OSSO-CUT-1        2303        419   441.E-03
  OSSO-CUT-1        2304        306   445.E-03
  OSSO-CUT-1        2304       1081   445.E-03
  OSSO-CUT-1        2305        307   307.E-03
  OSSO-CUT-1        2305        550   307.E-03
  OSSO-CUT-1        2306        307   313.E-03
  OSSO-CUT-1        2306        745   313.E-03
  OSSO-CUT-1        2307        307   316.E-03
  OSSO-CUT-1        2307        551   316.E-03
  OSSO-CUT-1        2308        307   310.E-03
  OSSO-CUT-1        2308        308   310.E-03
  OSSO-CUT-1        2309        308   316.E-03
  OSSO-CUT-1        2310        308   309.E-03
  OSSO-CUT-1        2310        541   309.E-03
  OSSO-CUT-1        2311        308   317.E-03
  OSSO-CUT-1        2311        411   317.E-03
  OSSO-CUT-1        2312        309   418.E-03
  OSSO-CUT-1        2312       1018   418.E-03
  OSSO-CUT-1        2313        309   424.E-03
  OSSO-CUT-1        2313        989   424.E-03
  OSSO-CUT-1        2314        309   419.E-03
  OSSO-CUT-1        2314       1008   419.E-03
  OSSO-CUT-1        2315        309   413.E-03
  OSSO-CUT-1        2315       1010   413.E-03
  OSSO-CUT-1        2316        310   368.E-03
  OSSO-CUT-1        2316        821   368.E-03
  OSSO-CUT-1        2317        310   381.E-03
  OSSO-CUT-1        2317        929   381.E-03
  OSSO-CUT-1        2318        311   317.E-03
  OSSO-CUT-1        2318        931   317.E-03
  OSSO-CUT-1        2319        311   300.E-03
  OSSO-CUT-1        2319        905   300.E-03
  OSSO-CUT-1        2320        312   126.E-03
  OSSO-CUT-1        2320        590   126.E-03
  OSSO-CUT-1        2321        312   141.E-03
  OSSO-CUT-1        2321        313   141.E-03
  OSSO-CUT-1        2322        312   180.E-03
  OSSO-CUT-1        2322        589   180.E-03
  OSSO-CUT-1        2323        313   112.E-03
  OSSO-CUT-1        2323        513   112.E-03
  OSSO-CUT-1        2324        313   127.E-03
  OSSO-CUT-1        2324        661   127.E-03
  OSSO-CUT-1        2325        313   155.E-03
  OSSO-CUT-1        2325        660   155.E-03
  OSSO-CUT-1        2326        314   226.E-03
  OSSO-CUT-1        2326        891   226.E-03
  OSSO-CUT-1        2327        314   231.E-03
  OSSO-CUT-1        2327        942   231.E-03
  OSSO-CUT-1        2328        314   257.E-03
  OSSO-CUT-1        2328        792   257.E-03
  OSSO-CUT-1        2329        315   355.E-03
  OSSO-CUT-1        2329        977   355.E-03
  OSSO-CUT-1        2330        315   354.E-03
  OSSO-CUT-1        2330        922   354.E-03
  OSSO-CUT-1        2331        315   330.E-03
  OSSO-CUT-1        2331        961   330.E-03
  OSSO-CUT-1        2332        315   332.E-03
  OSSO-CUT-1        2332        974   332.E-03
  OSSO-CUT-1        2333        316   391.E-03
  OSSO-CUT-1        2333       1104   391.E-03
  OSSO-CUT-1        2334        316   396.E-03
  OSSO-CUT-1        2334        904   396.E-03
  OSSO-CUT-1        2335        316   408.E-03
  OSSO-CUT-1        2335       1000   408.E-03
  OSSO-CUT-1        2336        317   444.E-03
  OSSO-CUT-1        2336       1028   444.E-03
  OSSO-CUT-1        2337        317   441.E-03
  OSSO-CUT-1        2337        740   441.E-03
  OSSO-CUT-1        2338        317   444.E-03
  OSSO-CUT-1        2338        861   444.E-03
  OSSO-CUT-1        2339        318   392.E-03
  OSSO-CUT-1        2339        591   392.E-03
  OSSO-CUT-1        2340        318   405.E-03
  OSSO-CUT-1        2340        592   405.E-03
  OSSO-CUT-1        2341        319   406.E-03
  OSSO-CUT-1        2341        721   406.E-03
  OSSO-CUT-1        2342        319   411.E-03
  OSSO-CUT-1        2342        884   411.E-03
  OSSO-CUT-1        2343        319   431.E-03
  OSSO-CUT-1        2343        893   431.E-03
  OSSO-CUT-1        2344        319   425.E-03
  OSSO-CUT-1        2344        325   425.E-03
  OSSO-CUT-1        2345        320   470.E-03
  OSSO-CUT-1        2345        353   470.E-03
  OSSO-CUT-1        2346        320   479.E-03
  OSSO-CUT-1        2346       1027   479.E-03
  OSSO-CUT-1        2347        320   487.E-03
  OSSO-CUT-1        2347       1070   487.E-03
  OSSO-CUT-1        2348        320   477.E-03
  OSSO-CUT-1        2348       1003   477.E-03
  OSSO-CUT-1        2349        321   519.E-03
  OSSO-CUT-1        2349       1049   519.E-03
  OSSO-CUT-1        2350        321   512.E-03
  OSSO-CUT-1        2350       1059   512.E-03
  OSSO-CUT-1        2351        321   513.E-03
  OSSO-CUT-1        2351       1057   513.E-03
  OSSO-CUT-1        2352        322   499.E-03
  OSSO-CUT-1        2352       1070   499.E-03
  OSSO-CUT-1        2353        322   505.E-03
  OSSO-CUT-1        2353       1057   505.E-03
  OSSO-CUT-1        2354        322   506.E-03
  OSSO-CUT-1        2354       1059   506.E-03
  OSSO-CUT-1        2355        322   500.E-03
  OSSO-CUT-1        2355       1058   500.E-03
  OSSO-CUT-1        2356        323   452.E-03
  OSSO-CUT-1        2356        889   452.E-03
  OSSO-CUT-1        2357        323   454.E-03
  OSSO-CUT-1        2357        903   454.E-03
  OSSO-CUT-1        2358        323   460.E-03
  OSSO-CUT-1        2358        983   460.E-03
  OSSO-CUT-1        2359        323   458.E-03
  OSSO-CUT-1        2359       1061   458.E-03
  OSSO-CUT-1        2360        324   429.E-03
  OSSO-CUT-1        2360        325   429.E-03
  OSSO-CUT-1        2361        324   436.E-03
  OSSO-CUT-1        2361        794   436.E-03
  OSSO-CUT-1        2362        324   426.E-03
  OSSO-CUT-1        2362        659   426.E-03
  OSSO-CUT-1        2363        325   418.E-03
  OSSO-CUT-1        2363        592   418.E-03
  OSSO-CUT-1        2364        325   436.E-03
  OSSO-CUT-1        2364        793   436.E-03
  OSSO-CUT-1        2365        326   448.E-03
  OSSO-CUT-1        2365        861   448.E-03
  OSSO-CUT-1        2366        326   452.E-03
  OSSO-CUT-1        2366        889   452.E-03
  OSSO-CUT-1        2367        326   452.E-03
  OSSO-CUT-1        2367       1061   452.E-03
  OSSO-CUT-1        2368        326   448.E-03
  OSSO-CUT-1        2368       1028   448.E-03
  OSSO-CUT-1        2369        327   454.E-03
  OSSO-CUT-1        2369       1061   454.E-03
  OSSO-CUT-1        2370        327   455.E-03
  OSSO-CUT-1        2370       1060   455.E-03
  OSSO-CUT-1        2371        327   449.E-03
  OSSO-CUT-1        2371       1044   449.E-03
  OSSO-CUT-1        2372        327   448.E-03
  OSSO-CUT-1        2372       1043   448.E-03
  OSSO-CUT-1        2373        328   332.E-03
  OSSO-CUT-1        2373        717   332.E-03
  OSSO-CUT-1        2374        328   362.E-03
  OSSO-CUT-1        2374        565   362.E-03
  OSSO-CUT-1        2375        328   364.E-03
  OSSO-CUT-1        2375        591   364.E-03
  OSSO-CUT-1        2376        329   439.E-03
  OSSO-CUT-1        2376        954   439.E-03
  OSSO-CUT-1        2377        329   419.E-03
  OSSO-CUT-1        2377        925   419.E-03
  OSSO-CUT-1        2378        329   405.E-03
  OSSO-CUT-1        2378        959   405.E-03
  OSSO-CUT-1        2379        329   425.E-03
  OSSO-CUT-1        2379       1002   425.E-03
  OSSO-CUT-1        2380        330   449.E-03
  OSSO-CUT-1        2380       1030   449.E-03
  OSSO-CUT-1        2381        330   437.E-03
  OSSO-CUT-1        2381        361   437.E-03
  OSSO-CUT-1        2382        330   461.E-03
  OSSO-CUT-1        2382       1068   461.E-03
  OSSO-CUT-1        2383        330   473.E-03
  OSSO-CUT-1        2383       1108   473.E-03
  OSSO-CUT-1        2384        331   527.E-03
  OSSO-CUT-1        2384       1023   527.E-03
  OSSO-CUT-1        2385        331   537.E-03
  OSSO-CUT-1        2385        987   537.E-03
  OSSO-CUT-1        2386        331   521.E-03
  OSSO-CUT-1        2386       1067   521.E-03
  OSSO-CUT-1        2387        331   511.E-03
  OSSO-CUT-1        2387       1040   511.E-03
  OSSO-CUT-1        2388        332   525.E-03
  OSSO-CUT-1        2388       1049   525.E-03
  OSSO-CUT-1        2389        332   522.E-03
  OSSO-CUT-1        2389       1065   522.E-03
  OSSO-CUT-1        2390        332   529.E-03
  OSSO-CUT-1        2390       1066   529.E-03
  OSSO-CUT-1        2391        332   532.E-03
  OSSO-CUT-1        2391       1051   532.E-03
  OSSO-CUT-1        2392        333   471.E-03
  OSSO-CUT-1        2392       1003   471.E-03
  OSSO-CUT-1        2393        333   468.E-03
  OSSO-CUT-1        2393       1071   468.E-03
  OSSO-CUT-1        2394        333   458.E-03
  OSSO-CUT-1        2394        982   458.E-03
  OSSO-CUT-1        2395        333   461.E-03
  OSSO-CUT-1        2395        954   461.E-03
  OSSO-CUT-1        2396        334   483.E-03
  OSSO-CUT-1        2396       1034   483.E-03
  OSSO-CUT-1        2397        334   476.E-03
  OSSO-CUT-1        2397       1069   476.E-03
  OSSO-CUT-1        2398        334   478.E-03
  OSSO-CUT-1        2398       1063   478.E-03
  OSSO-CUT-1        2399        334   486.E-03
  OSSO-CUT-1        2399       1120   486.E-03
  OSSO-CUT-1        2400        335   461.E-03
  OSSO-CUT-1        2400        875   461.E-03
  OSSO-CUT-1        2401        335   452.E-03
  OSSO-CUT-1        2401       1121   452.E-03
  OSSO-CUT-1        2402        335   435.E-03
  OSSO-CUT-1        2402        808   435.E-03
  OSSO-CUT-1        2403        335   444.E-03
  OSSO-CUT-1        2403        874   444.E-03
  OSSO-CUT-1        2404        336   469.E-03
  OSSO-CUT-1        2404        878   469.E-03
  OSSO-CUT-1        2405        336   484.E-03
  OSSO-CUT-1        2405        886   484.E-03
  OSSO-CUT-1        2406        337   329.E-03
  OSSO-CUT-1        2406        346   329.E-03
  OSSO-CUT-1        2407        337   361.E-03
  OSSO-CUT-1        2407        959   361.E-03
  OSSO-CUT-1        2408        337   345.E-03
  OSSO-CUT-1        2408        718   345.E-03
  OSSO-CUT-1        2409        337   314.E-03
  OSSO-CUT-1        2409        995   314.E-03
  OSSO-CUT-1        2410        338   383.E-03
  OSSO-CUT-1        2410        997   383.E-03
  OSSO-CUT-1        2411        338   418.E-03
  OSSO-CUT-1        2411       1030   418.E-03
  OSSO-CUT-1        2412        338   420.E-03
  OSSO-CUT-1        2412       1002   420.E-03
  OSSO-CUT-1        2413        338   386.E-03
  OSSO-CUT-1        2413        352   386.E-03
  OSSO-CUT-1        2414        339   466.E-03
  OSSO-CUT-1        2414        994   466.E-03
  OSSO-CUT-1        2415        339   480.E-03
  OSSO-CUT-1        2415       1040   480.E-03
  OSSO-CUT-1        2416        339   466.E-03
  OSSO-CUT-1        2416       1068   466.E-03
  OSSO-CUT-1        2417        339   453.E-03
  OSSO-CUT-1        2417       1035   453.E-03
  OSSO-CUT-1        2418        340   538.E-03
  OSSO-CUT-1        2418       1023   538.E-03
  OSSO-CUT-1        2419        340   530.E-03
  OSSO-CUT-1        2419       1055   530.E-03
  OSSO-CUT-1        2420        340   542.E-03
  OSSO-CUT-1        2420       1054   542.E-03
  OSSO-CUT-1        2421        340   551.E-03
  OSSO-CUT-1        2421       1125   551.E-03
  OSSO-CUT-1        2422        341   392.E-03
  OSSO-CUT-1        2422        884   392.E-03
  OSSO-CUT-1        2423        341   374.E-03
  OSSO-CUT-1        2423        718   374.E-03
  OSSO-CUT-1        2424        341   386.E-03
  OSSO-CUT-1        2424        959   386.E-03
  OSSO-CUT-1        2425        341   404.E-03
  OSSO-CUT-1        2425        925   404.E-03
  OSSO-CUT-1        2426        342   487.E-03
  OSSO-CUT-1        2426        787   487.E-03
  OSSO-CUT-1        2427        342   481.E-03
  OSSO-CUT-1        2427        788   481.E-03
  OSSO-CUT-1        2428        342   501.E-03
  OSSO-CUT-1        2428        906   501.E-03
  OSSO-CUT-1        2429        343   495.E-03
  OSSO-CUT-1        2429        850   495.E-03
  OSSO-CUT-1        2430        343   498.E-03
  OSSO-CUT-1        2430        887   498.E-03
  OSSO-CUT-1        2431        343   513.E-03
  OSSO-CUT-1        2431       1037   513.E-03
  OSSO-CUT-1        2432        343   510.E-03
  OSSO-CUT-1        2432        906   510.E-03
  OSSO-CUT-1        2433        344   349.E-03
  OSSO-CUT-1        2433        622   349.E-03
  OSSO-CUT-1        2434        344   383.E-03
  OSSO-CUT-1        2434        724   383.E-03
  OSSO-CUT-1        2435        344   379.E-03
  OSSO-CUT-1        2435        640   379.E-03
  OSSO-CUT-1        2436        345   257.E-03
  OSSO-CUT-1        2437        346   347.E-03
  OSSO-CUT-1        2437        352   347.E-03
  OSSO-CUT-1        2438        346   297.E-03
  OSSO-CUT-1        2438        996   297.E-03
  OSSO-CUT-1        2439        346   315.E-03
  OSSO-CUT-1        2439       1015   315.E-03
  OSSO-CUT-1        2440        347   328.E-03
  OSSO-CUT-1        2440        997   328.E-03
  OSSO-CUT-1        2441        347   282.E-03
  OSSO-CUT-1        2441        503   282.E-03
  OSSO-CUT-1        2442        347   295.E-03
  OSSO-CUT-1        2442        935   295.E-03
  OSSO-CUT-1        2443        347   340.E-03
  OSSO-CUT-1        2443        956   340.E-03
  OSSO-CUT-1        2444        348   395.E-03
  OSSO-CUT-1        2444       1093   395.E-03
  OSSO-CUT-1        2445        348   397.E-03
  OSSO-CUT-1        2445        862   397.E-03
  OSSO-CUT-1        2446        348   427.E-03
  OSSO-CUT-1        2446        372   427.E-03
  OSSO-CUT-1        2447        348   426.E-03
  OSSO-CUT-1        2447       1102   426.E-03
  OSSO-CUT-1        2448        349   452.E-03
  OSSO-CUT-1        2448        837   452.E-03
  OSSO-CUT-1        2449        349   470.E-03
  OSSO-CUT-1        2449        993   470.E-03
  OSSO-CUT-1        2450        349   476.E-03
  OSSO-CUT-1        2450        958   476.E-03
  OSSO-CUT-1        2451        349   457.E-03
  OSSO-CUT-1        2451        372   457.E-03
  OSSO-CUT-1        2452        350   433.E-03
  OSSO-CUT-1        2452        776   433.E-03
  OSSO-CUT-1        2453        350   429.E-03
  OSSO-CUT-1        2453        826   429.E-03
  OSSO-CUT-1        2454        350   407.E-03
  OSSO-CUT-1        2454        777   407.E-03
  OSSO-CUT-1        2455        350   410.E-03
  OSSO-CUT-1        2455        757   410.E-03
  OSSO-CUT-1        2456        351   512.E-03
  OSSO-CUT-1        2456       1022   512.E-03
  OSSO-CUT-1        2457        351   513.E-03
  OSSO-CUT-1        2457       1036   513.E-03
  OSSO-CUT-1        2458        351   534.E-03
  OSSO-CUT-1        2458        857   534.E-03
  OSSO-CUT-1        2459        351   532.E-03
  OSSO-CUT-1        2459       1054   532.E-03
  OSSO-CUT-1        2460        352   352.E-03
  OSSO-CUT-1        2460       1015   352.E-03
  OSSO-CUT-1        2461        352   381.E-03
  OSSO-CUT-1        2461        959   381.E-03
  OSSO-CUT-1        2462        353   457.E-03
  OSSO-CUT-1        2462        954   457.E-03
  OSSO-CUT-1        2463        353   452.E-03
  OSSO-CUT-1        2463       1002   452.E-03
  OSSO-CUT-1        2464        353   466.E-03
  OSSO-CUT-1        2464       1027   466.E-03
  OSSO-CUT-1        2465        354   410.E-03
  OSSO-CUT-1        2465        640   410.E-03
  OSSO-CUT-1        2466        354   415.E-03
  OSSO-CUT-1        2466        619   415.E-03
  OSSO-CUT-1        2467        355   284.E-03
  OSSO-CUT-1        2467        771   284.E-03
  OSSO-CUT-1        2468        355   289.E-03
  OSSO-CUT-1        2468       1087   289.E-03
  OSSO-CUT-1        2469        355   247.E-03
  OSSO-CUT-1        2469        505   247.E-03
  OSSO-CUT-1        2470        356   358.E-03
  OSSO-CUT-1        2470        802   358.E-03
  OSSO-CUT-1        2471        356   358.E-03
  OSSO-CUT-1        2471        862   358.E-03
  OSSO-CUT-1        2472        356   330.E-03
  OSSO-CUT-1        2472        771   330.E-03
  OSSO-CUT-1        2473        356   331.E-03
  OSSO-CUT-1        2473        371   331.E-03
  OSSO-CUT-1        2474        357   426.E-03
  OSSO-CUT-1        2474        856   426.E-03
  OSSO-CUT-1        2475        357   454.E-03
  OSSO-CUT-1        2475        778   454.E-03
  OSSO-CUT-1        2476        357   442.E-03
  OSSO-CUT-1        2476        992   442.E-03
  OSSO-CUT-1        2477        357   415.E-03
  OSSO-CUT-1        2477       1112   415.E-03
  OSSO-CUT-1        2478        358   479.E-03
  OSSO-CUT-1        2478        605   479.E-03
  OSSO-CUT-1        2479        358   444.E-03
  OSSO-CUT-1        2479        385   444.E-03
  OSSO-CUT-1        2480        358   477.E-03
  OSSO-CUT-1        2480        604   477.E-03
  OSSO-CUT-1        2481        359   538.E-03
  OSSO-CUT-1        2481        828   538.E-03
  OSSO-CUT-1        2482        359   519.E-03
  OSSO-CUT-1        2482        899   519.E-03
  OSSO-CUT-1        2483        359   537.E-03
  OSSO-CUT-1        2483        900   537.E-03
  OSSO-CUT-1        2484        359   557.E-03
  OSSO-CUT-1        2484        779   557.E-03
  OSSO-CUT-1        2485        360   357.E-03
  OSSO-CUT-1        2485        912   357.E-03
  OSSO-CUT-1        2486        360   347.E-03
  OSSO-CUT-1        2486        956   347.E-03
  OSSO-CUT-1        2487        360   314.E-03
  OSSO-CUT-1        2487        935   314.E-03
  OSSO-CUT-1        2488        360   324.E-03
  OSSO-CUT-1        2488        934   324.E-03
  OSSO-CUT-1        2489        361   431.E-03
  OSSO-CUT-1        2489        957   431.E-03
  OSSO-CUT-1        2490        361   412.E-03
  OSSO-CUT-1        2490        973   412.E-03
  OSSO-CUT-1        2491        361   405.E-03
  OSSO-CUT-1        2491       1111   405.E-03
  OSSO-CUT-1        2492        362   575.E-03
  OSSO-CUT-1        2492        841   575.E-03
  OSSO-CUT-1        2493        362   597.E-03
  OSSO-CUT-1        2493        367   597.E-03
  OSSO-CUT-1        2494        362   591.E-03
  OSSO-CUT-1        2494        774   591.E-03
  OSSO-CUT-1        2495        363   490.E-03
  OSSO-CUT-1        2495        617   490.E-03
  OSSO-CUT-1        2496        363   502.E-03
  OSSO-CUT-1        2496        754   502.E-03
  OSSO-CUT-1        2497        363   512.E-03
  OSSO-CUT-1        2497        921   512.E-03
  OSSO-CUT-1        2498        364   474.E-03
  OSSO-CUT-1        2498        532   474.E-03
  OSSO-CUT-1        2499        364   503.E-03
  OSSO-CUT-1        2499        534   503.E-03
  OSSO-CUT-1        2500        364   480.E-03
  OSSO-CUT-1        2501        365   325.E-03
  OSSO-CUT-1        2501       1087   325.E-03
  OSSO-CUT-1        2502        365   325.E-03
  OSSO-CUT-1        2502        771   325.E-03
  OSSO-CUT-1        2503        365   362.E-03
  OSSO-CUT-1        2503        862   362.E-03
  OSSO-CUT-1        2504        365   363.E-03
  OSSO-CUT-1        2504       1093   363.E-03
  OSSO-CUT-1        2505        366   452.E-03
  OSSO-CUT-1        2505       1102   452.E-03
  OSSO-CUT-1        2506        366   454.E-03
  OSSO-CUT-1        2506        372   454.E-03
  OSSO-CUT-1        2507        366   478.E-03
  OSSO-CUT-1        2507        958   478.E-03
  OSSO-CUT-1        2508        366   477.E-03
  OSSO-CUT-1        2508        976   477.E-03
  OSSO-CUT-1        2509        367   602.E-03
  OSSO-CUT-1        2509       1123   602.E-03
  OSSO-CUT-1        2510        367   620.E-03
  OSSO-CUT-1        2510        876   620.E-03
  OSSO-CUT-1        2511        368   631.E-03
  OSSO-CUT-1        2511        881   631.E-03
  OSSO-CUT-1        2512        368   612.E-03
  OSSO-CUT-1        2512       1118   612.E-03
  OSSO-CUT-1        2513        368   598.E-03
  OSSO-CUT-1        2513        894   598.E-03
  OSSO-CUT-1        2514        368   615.E-03
  OSSO-CUT-1        2514       1014   615.E-03
  OSSO-CUT-1        2515        369   620.E-03
  OSSO-CUT-1        2515        533   620.E-03
  OSSO-CUT-1        2516        369   608.E-03
  OSSO-CUT-1        2516        649   608.E-03
  OSSO-CUT-1        2517        370   600.E-03
  OSSO-CUT-1        2517        533   600.E-03
  OSSO-CUT-1        2518        370   581.E-03
  OSSO-CUT-1        2518        445   581.E-03
  OSSO-CUT-1        2519        370   549.E-03
  OSSO-CUT-1        2519        535   549.E-03
  OSSO-CUT-1        2520        371   328.E-03
  OSSO-CUT-1        2520        836   328.E-03
  OSSO-CUT-1        2521        371   346.E-03
  OSSO-CUT-1        2521        802   346.E-03
  OSSO-CUT-1        2522        371   314.E-03
  OSSO-CUT-1        2522        506   314.E-03
  OSSO-CUT-1        2523        372   431.E-03
  OSSO-CUT-1        2523        837   431.E-03
  OSSO-CUT-1        2524        373   713.E-03
  OSSO-CUT-1        2524        800   713.E-03
  OSSO-CUT-1        2525        374   571.E-03
  OSSO-CUT-1        2525        779   571.E-03
  OSSO-CUT-1        2526        374   583.E-03
  OSSO-CUT-1        2526       1013   583.E-03
  OSSO-CUT-1        2527        374   558.E-03
  OSSO-CUT-1        2527        828   558.E-03
  OSSO-CUT-1        2528        375   730.E-03
  OSSO-CUT-1        2528        380   730.E-03
  OSSO-CUT-1        2529        375   722.E-03
  OSSO-CUT-1        2529        531   722.E-03
  OSSO-CUT-1        2530        375   692.E-03
  OSSO-CUT-1        2530        651   692.E-03
  OSSO-CUT-1        2531        376   708.E-03
  OSSO-CUT-1        2531        531   708.E-03
  OSSO-CUT-1        2532        376   695.E-03
  OSSO-CUT-1        2532        444   695.E-03
  OSSO-CUT-1        2533        376   653.E-03
  OSSO-CUT-1        2533        533   653.E-03
  OSSO-CUT-1        2534        377   334.E-03
  OSSO-CUT-1        2534        509   334.E-03
  OSSO-CUT-1        2535        377   336.E-03
  OSSO-CUT-1        2535        669   336.E-03
  OSSO-CUT-1        2536        377   316.E-03
  OSSO-CUT-1        2536        668   316.E-03
  OSSO-CUT-1        2537        378   354.E-03
  OSSO-CUT-1        2537       1086   354.E-03
  OSSO-CUT-1        2538        378   359.E-03
  OSSO-CUT-1        2538       1092   359.E-03
  OSSO-CUT-1        2539        378   381.E-03
  OSSO-CUT-1        2539        777   381.E-03
  OSSO-CUT-1        2540        378   374.E-03
  OSSO-CUT-1        2540        843   374.E-03
  OSSO-CUT-1        2541        379   384.E-03
  OSSO-CUT-1        2541        757   384.E-03
  OSSO-CUT-1        2542        379   383.E-03
  OSSO-CUT-1        2542        777   383.E-03
  OSSO-CUT-1        2543        379   361.E-03
  OSSO-CUT-1        2543       1092   361.E-03
  OSSO-CUT-1        2544        379   361.E-03
  OSSO-CUT-1        2544        719   361.E-03
  OSSO-CUT-1        2545        380   779.E-03
  OSSO-CUT-1        2545        652   779.E-03
  OSSO-CUT-1        2546        380   777.E-03
  OSSO-CUT-1        2546        381   777.E-03
  OSSO-CUT-1        2547        380   735.E-03
  OSSO-CUT-1        2547        722   735.E-03
  OSSO-CUT-1        2548        381   828.E-03
  OSSO-CUT-1        2548        530   828.E-03
  OSSO-CUT-1        2549        381   766.E-03
  OSSO-CUT-1        2549        531   766.E-03
  OSSO-CUT-1        2550        382   382.E-03
  OSSO-CUT-1        2550        485   382.E-03
  OSSO-CUT-1        2551        382   346.E-03
  OSSO-CUT-1        2551        606   346.E-03
  OSSO-CUT-1        2552        382   400.E-03
  OSSO-CUT-1        2552        433   400.E-03
  OSSO-CUT-1        2553        383   334.E-03
  OSSO-CUT-1        2553        384   334.E-03
  OSSO-CUT-1        2554        383   338.E-03
  OSSO-CUT-1        2554        719   338.E-03
  OSSO-CUT-1        2555        384   360.E-03
  OSSO-CUT-1        2555        693   360.E-03
  OSSO-CUT-1        2556        384   332.E-03
  OSSO-CUT-1        2556        489   332.E-03
  OSSO-CUT-1        2557        385   438.E-03
  OSSO-CUT-1        2557        715   438.E-03
  OSSO-CUT-1        2558        385   402.E-03
  OSSO-CUT-1        2558        490   402.E-03
  OSSO-CUT-1        2559        386   839.E-03
  OSSO-CUT-1        2559        603   839.E-03
  OSSO-CUT-1        2560        386   920.E-03
  OSSO-CUT-1        2560        483   920.E-03
  OSSO-CUT-1        2561        386   953.E-03
  OSSO-CUT-1        2561        577   953.E-03
  OSSO-CUT-1        2562        387   889.E-03
  OSSO-CUT-1        2562        578   889.E-03
  OSSO-CUT-1        2563        387   964.E-03
  OSSO-CUT-1        2563        577   964.E-03
  OSSO-CUT-1        2564        387   977.E-03
  OSSO-CUT-1        2564        529   977.E-03
  OSSO-CUT-1        2565        387   896.E-03
  OSSO-CUT-1        2565        530   896.E-03
  OSSO-CUT-1        2566        388    95.E-03
  OSSO-CUT-1        2567        389   123.E-03
  OSSO-CUT-1        2567        400   123.E-03
  OSSO-CUT-1        2568        389   122.E-03
  OSSO-CUT-1        2568        558   122.E-03
  OSSO-CUT-1        2569        389   100.E-03
  OSSO-CUT-1        2570        390    76.E-03
  OSSO-CUT-1        2571        391   542.E-03
  OSSO-CUT-1        2571        638   542.E-03
  OSSO-CUT-1        2572        391         2.
  OSSO-CUT-1        2573        392   368.E-03
  OSSO-CUT-1        2573        568   368.E-03
  OSSO-CUT-1        2574        392   398.E-03
  OSSO-CUT-1        2574        466   398.E-03
  OSSO-CUT-1        2575        392   380.E-03
  OSSO-CUT-1        2576        392   348.E-03
  OSSO-CUT-1        2576        393   348.E-03
  OSSO-CUT-1        2577        393   335.E-03
  OSSO-CUT-1        2578        393   314.E-03
  OSSO-CUT-1        2578        467   314.E-03
  OSSO-CUT-1        2579        394   255.E-03
  OSSO-CUT-1        2580        394   214.E-03
  OSSO-CUT-1        2580        395   214.E-03
  OSSO-CUT-1        2581        395   184.E-03
  OSSO-CUT-1        2582        395   150.E-03
  OSSO-CUT-1        2583        396   126.E-03
  OSSO-CUT-1        2584        396   136.E-03
  OSSO-CUT-1        2585        396   120.E-03
  OSSO-CUT-1        2585        397   120.E-03
  OSSO-CUT-1        2586        397   109.E-03
  OSSO-CUT-1        2586        398   109.E-03
  OSSO-CUT-1        2587        397   132.E-03
  OSSO-CUT-1        2588        398   103.E-03
  OSSO-CUT-1        2588        476   103.E-03
  OSSO-CUT-1        2589        398    91.E-03
  OSSO-CUT-1        2589        634    91.E-03
  OSSO-CUT-1        2590        399    76.E-03
  OSSO-CUT-1        2590        553    76.E-03
  OSSO-CUT-1        2591        399    70.E-03
  OSSO-CUT-1        2591        557    70.E-03
  OSSO-CUT-1        2592        399    86.E-03
  OSSO-CUT-1        2592        556    86.E-03
  OSSO-CUT-1        2593        400   124.E-03
  OSSO-CUT-1        2594        401   239.E-03
  OSSO-CUT-1        2594        402   239.E-03
  OSSO-CUT-1        2595        401   236.E-03
  OSSO-CUT-1        2595        616   236.E-03
  OSSO-CUT-1        2596        401   237.E-03
  OSSO-CUT-1        2597        402   219.E-03
  OSSO-CUT-1        2598        402   228.E-03
  OSSO-CUT-1        2598        524   228.E-03
  OSSO-CUT-1        2599        403   176.E-03
  OSSO-CUT-1        2599        626   176.E-03
  OSSO-CUT-1        2600        403   185.E-03
  OSSO-CUT-1        2600        520   185.E-03
  OSSO-CUT-1        2601        403   163.E-03
  OSSO-CUT-1        2601        521   163.E-03
  OSSO-CUT-1        2602        404   120.E-03
  OSSO-CUT-1        2603        404   118.E-03
  OSSO-CUT-1        2603        538   118.E-03
  OSSO-CUT-1        2604        405   248.E-03
  OSSO-CUT-1        2605        405   244.E-03
  OSSO-CUT-1        2605        536   244.E-03
  OSSO-CUT-1        2606        406   308.E-03
  OSSO-CUT-1        2606        544   308.E-03
  OSSO-CUT-1        2607        406   283.E-03
  OSSO-CUT-1        2608        406   290.E-03
  OSSO-CUT-1        2608        542   290.E-03
  OSSO-CUT-1        2609        407   291.E-03
  OSSO-CUT-1        2609        543   291.E-03
  OSSO-CUT-1        2610        407   278.E-03
  OSSO-CUT-1        2611        408   293.E-03
  OSSO-CUT-1        2612        408   300.E-03
  OSSO-CUT-1        2612        409   300.E-03
  OSSO-CUT-1        2613        409   302.E-03
  OSSO-CUT-1        2614        409   307.E-03
  OSSO-CUT-1        2614        547   307.E-03
  OSSO-CUT-1        2615        410   318.E-03
  OSSO-CUT-1        2616        410   321.E-03
  OSSO-CUT-1        2616        548   321.E-03
  OSSO-CUT-1        2617        410   320.E-03
  OSSO-CUT-1        2617        549   320.E-03
  OSSO-CUT-1        2618        411   318.E-03
  OSSO-CUT-1        2618        551   318.E-03
  OSSO-CUT-1        2619        411   321.E-03
  OSSO-CUT-1        2620        412   238.E-03
  OSSO-CUT-1        2621        412   265.E-03
  OSSO-CUT-1        2622        412   287.E-03
  OSSO-CUT-1        2622        462   287.E-03
  OSSO-CUT-1        2623        413   281.E-03
  OSSO-CUT-1        2623        414   281.E-03
  OSSO-CUT-1        2624        413   289.E-03
  OSSO-CUT-1        2624        462   289.E-03
  OSSO-CUT-1        2625        413   288.E-03
  OSSO-CUT-1        2626        414   290.E-03
  OSSO-CUT-1        2627        414   286.E-03
  OSSO-CUT-1        2628        414   273.E-03
  OSSO-CUT-1        2628        463   273.E-03
  OSSO-CUT-1        2629        415   219.E-03
  OSSO-CUT-1        2630        415   229.E-03
  OSSO-CUT-1        2630        562   229.E-03
  OSSO-CUT-1        2631        416   150.E-03
  OSSO-CUT-1        2632        416   126.E-03
  OSSO-CUT-1        2633        416   134.E-03
  OSSO-CUT-1        2633        417   134.E-03
  OSSO-CUT-1        2634        417    85.E-03
  OSSO-CUT-1        2635        417   173.E-03
  OSSO-CUT-1        2635        581   173.E-03
  OSSO-CUT-1        2636        418   117.E-03
  OSSO-CUT-1        2637        419   469.E-03
  OSSO-CUT-1        2637        932   469.E-03
  OSSO-CUT-1        2638        420   758.E-03
  OSSO-CUT-1        2639        420   603.E-03
  OSSO-CUT-1        2639        656   603.E-03
  OSSO-CUT-1        2640        421   682.E-03
  OSSO-CUT-1        2641        421   767.E-03
  OSSO-CUT-1        2641        422   767.E-03
  OSSO-CUT-1        2642        422         1.
  OSSO-CUT-1        2643        422   671.E-03
  OSSO-CUT-1        2643        465   671.E-03
  OSSO-CUT-1        2644        423   541.E-03
  OSSO-CUT-1        2644        424   541.E-03
  OSSO-CUT-1        2645        423   519.E-03
  OSSO-CUT-1        2645        498   519.E-03
  OSSO-CUT-1        2646        423   528.E-03
  OSSO-CUT-1        2646        494   528.E-03
  OSSO-CUT-1        2647        423   551.E-03
  OSSO-CUT-1        2648        424   579.E-03
  OSSO-CUT-1        2649        425   352.E-03
  OSSO-CUT-1        2649        426   352.E-03
  OSSO-CUT-1        2650        425   375.E-03
  OSSO-CUT-1        2650        496   375.E-03
  OSSO-CUT-1        2651        425   402.E-03
  OSSO-CUT-1        2652        426   325.E-03
  OSSO-CUT-1        2653        427   190.E-03
  OSSO-CUT-1        2654        427   216.E-03
  OSSO-CUT-1        2654        502   216.E-03
  OSSO-CUT-1        2655        428    64.E-03
  OSSO-CUT-1        2656        428   129.E-03
  OSSO-CUT-1        2656        504   129.E-03
  OSSO-CUT-1        2657        429    62.E-03
  OSSO-CUT-1        2658        429    86.E-03
  OSSO-CUT-1        2658        430    86.E-03
  OSSO-CUT-1        2659        429   100.E-03
  OSSO-CUT-1        2659       1033   100.E-03
  OSSO-CUT-1        2660        430   125.E-03
  OSSO-CUT-1        2661        431   253.E-03
  OSSO-CUT-1        2662        431   258.E-03
  OSSO-CUT-1        2662        611   258.E-03
  OSSO-CUT-1        2663        431   217.E-03
  OSSO-CUT-1        2663        789   217.E-03
  OSSO-CUT-1        2664        432   319.E-03
  OSSO-CUT-1        2664        611   319.E-03
  OSSO-CUT-1        2665        432   381.E-03
  OSSO-CUT-1        2666        432   325.E-03
  OSSO-CUT-1        2666        507   325.E-03
  OSSO-CUT-1        2667        433   411.E-03
  OSSO-CUT-1        2667        508   411.E-03
  OSSO-CUT-1        2668        433   496.E-03
  OSSO-CUT-1        2668        434   496.E-03
  OSSO-CUT-1        2669        433   472.E-03
  OSSO-CUT-1        2669        487   472.E-03
  OSSO-CUT-1        2670        434   593.E-03
  OSSO-CUT-1        2671        435   525.E-03
  OSSO-CUT-1        2671        487   525.E-03
  OSSO-CUT-1        2672        435   478.E-03
  OSSO-CUT-1        2673        436   285.E-03
  OSSO-CUT-1        2674        437   295.E-03
  OSSO-CUT-1        2674        489   295.E-03
  OSSO-CUT-1        2675        437   264.E-03
  OSSO-CUT-1        2675        486   264.E-03
  OSSO-CUT-1        2676        437   255.E-03
  OSSO-CUT-1        2677        438   365.E-03
  OSSO-CUT-1        2677        490   365.E-03
  OSSO-CUT-1        2678        438   331.E-03
  OSSO-CUT-1        2679        439   454.E-03
  OSSO-CUT-1        2679        480   454.E-03
  OSSO-CUT-1        2680        439   432.E-03
  OSSO-CUT-1        2681        440   673.E-03
  OSSO-CUT-1        2681        482   673.E-03
  OSSO-CUT-1        2682        440   635.E-03
  OSSO-CUT-1        2683        441         2.
  OSSO-CUT-1        2684        441         1.
  OSSO-CUT-1        2684        528         1.
  OSSO-CUT-1        2685        441         2.
  OSSO-CUT-1        2686        442         1.
  OSSO-CUT-1        2686        577         1.
  OSSO-CUT-1        2687        442         1.
  OSSO-CUT-1        2687        528         1.
  OSSO-CUT-1        2688        442         1.
  OSSO-CUT-1        2689        442         1.
  OSSO-CUT-1        2689        529         1.
  OSSO-CUT-1        2690        443   792.E-03
  OSSO-CUT-1        2691        443   739.E-03
  OSSO-CUT-1        2691        444   739.E-03
  OSSO-CUT-1        2692        443   756.E-03
  OSSO-CUT-1        2692        531   756.E-03
  OSSO-CUT-1        2693        444   726.E-03
  OSSO-CUT-1        2694        445   600.E-03
  OSSO-CUT-1        2695        445   560.E-03
  OSSO-CUT-1        2695        534   560.E-03
  OSSO-CUT-1        2696        446   373.E-03
  OSSO-CUT-1        2696        525   373.E-03
  OSSO-CUT-1        2697        446   366.E-03
  OSSO-CUT-1        2698        447   153.E-03
  OSSO-CUT-1        2699        447   193.E-03
  OSSO-CUT-1        2699        835   193.E-03
  OSSO-CUT-1        2700        448    55.E-03
  OSSO-CUT-1        2701        449    37.E-03
  OSSO-CUT-1        2702        449    66.E-03
  OSSO-CUT-1        2702        590    66.E-03
  OSSO-CUT-1        2703        450   157.E-03
  OSSO-CUT-1        2704        450   152.E-03
  OSSO-CUT-1        2704        517   152.E-03
  OSSO-CUT-1        2705        451   230.E-03
  OSSO-CUT-1        2706        452   243.E-03
  OSSO-CUT-1        2707        453   258.E-03
  OSSO-CUT-1        2708        453   224.E-03
  OSSO-CUT-1        2708        612   224.E-03
  OSSO-CUT-1        2709        454   254.E-03
  OSSO-CUT-1        2710        454   255.E-03
  OSSO-CUT-1        2710        522   255.E-03
  OSSO-CUT-1        2711        454   241.E-03
  OSSO-CUT-1        2711        524   241.E-03
  OSSO-CUT-1        2712        455   282.E-03
  OSSO-CUT-1        2712        523   282.E-03
  OSSO-CUT-1        2713        455   276.E-03
  OSSO-CUT-1        2713        522   276.E-03
  OSSO-CUT-1        2714        455   293.E-03
  OSSO-CUT-1        2715        456   466.E-03
  OSSO-CUT-1        2715        678   466.E-03
  OSSO-CUT-1        2716        456   494.E-03
  OSSO-CUT-1        2717        456   475.E-03
  OSSO-CUT-1        2717        511   475.E-03
  OSSO-CUT-1        2718        457   560.E-03
  OSSO-CUT-1        2718        497   560.E-03
  OSSO-CUT-1        2719        457   510.E-03
  OSSO-CUT-1        2720        457   556.E-03
  OSSO-CUT-1        2720        458   556.E-03
  OSSO-CUT-1        2721        458   569.E-03
  OSSO-CUT-1        2722        459   583.E-03
  OSSO-CUT-1        2723        460   538.E-03
  OSSO-CUT-1        2724        460   467.E-03
  OSSO-CUT-1        2724        466   467.E-03
  OSSO-CUT-1        2725        460   612.E-03
  OSSO-CUT-1        2726        461   587.E-03
  OSSO-CUT-1        2726        583   587.E-03
  OSSO-CUT-1        2727        462   298.E-03
  OSSO-CUT-1        2728        463   242.E-03
  OSSO-CUT-1        2729        464   512.E-03
  OSSO-CUT-1        2729        597   512.E-03
  OSSO-CUT-1        2730        464   516.E-03
  OSSO-CUT-1        2730        584   516.E-03
  OSSO-CUT-1        2731        464   472.E-03
  OSSO-CUT-1        2731        703   472.E-03
  OSSO-CUT-1        2732        464   472.E-03
  OSSO-CUT-1        2732        704   472.E-03
  OSSO-CUT-1        2733        466   422.E-03
  OSSO-CUT-1        2734        467   282.E-03
  OSSO-CUT-1        2734        473   282.E-03
  OSSO-CUT-1        2735        467   308.E-03
  OSSO-CUT-1        2735        569   308.E-03
  OSSO-CUT-1        2736        467   340.E-03
  OSSO-CUT-1        2736        568   340.E-03
  OSSO-CUT-1        2737        468   207.E-03
  OSSO-CUT-1        2737        600   207.E-03
  OSSO-CUT-1        2738        468   223.E-03
  OSSO-CUT-1        2738        601   223.E-03
  OSSO-CUT-1        2739        469   481.E-03
  OSSO-CUT-1        2739        712   481.E-03
  OSSO-CUT-1        2740        470   453.E-03
  OSSO-CUT-1        2741        470   437.E-03
  OSSO-CUT-1        2741        596   437.E-03
  OSSO-CUT-1        2742        471   422.E-03
  OSSO-CUT-1        2742       1080   422.E-03
  OSSO-CUT-1        2743        471   402.E-03
  OSSO-CUT-1        2743        711   402.E-03
  OSSO-CUT-1        2744        472   184.E-03
  OSSO-CUT-1        2744        600   184.E-03
  OSSO-CUT-1        2745        472   190.E-03
  OSSO-CUT-1        2745        602   190.E-03
  OSSO-CUT-1        2746        472   155.E-03
  OSSO-CUT-1        2746        691   155.E-03
  OSSO-CUT-1        2747        473   252.E-03
  OSSO-CUT-1        2747        601   252.E-03
  OSSO-CUT-1        2748        474   130.E-03
  OSSO-CUT-1        2748        882   130.E-03
  OSSO-CUT-1        2749        474   132.E-03
  OSSO-CUT-1        2749        537   132.E-03
  OSSO-CUT-1        2750        474   119.E-03
  OSSO-CUT-1        2750        539   119.E-03
  OSSO-CUT-1        2751        475   127.E-03
  OSSO-CUT-1        2751        538   127.E-03
  OSSO-CUT-1        2752        477   272.E-03
  OSSO-CUT-1        2752        478   272.E-03
  OSSO-CUT-1        2753        478   329.E-03
  OSSO-CUT-1        2753        785   329.E-03
  OSSO-CUT-1        2754        478   282.E-03
  OSSO-CUT-1        2754        563   282.E-03
  OSSO-CUT-1        2755        479   507.E-03
  OSSO-CUT-1        2755        604   507.E-03
  OSSO-CUT-1        2756        479   486.E-03
  OSSO-CUT-1        2756        480   486.E-03
  OSSO-CUT-1        2757        479   538.E-03
  OSSO-CUT-1        2757        484   538.E-03
  OSSO-CUT-1        2758        480   474.E-03
  OSSO-CUT-1        2758        604   474.E-03
  OSSO-CUT-1        2759        481   865.E-03
  OSSO-CUT-1        2760        481   917.E-03
  OSSO-CUT-1        2760        483   917.E-03
  OSSO-CUT-1        2761        484   584.E-03
  OSSO-CUT-1        2761       1084   584.E-03
  OSSO-CUT-1        2762        485   436.E-03
  OSSO-CUT-1        2762        487   436.E-03
  OSSO-CUT-1        2763        486   238.E-03
  OSSO-CUT-1        2764        488   364.E-03
  OSSO-CUT-1        2764        490   364.E-03
  OSSO-CUT-1        2765        488   328.E-03
  OSSO-CUT-1        2765        489   328.E-03
  OSSO-CUT-1        2766        491   845.E-03
  OSSO-CUT-1        2767        492   529.E-03
  OSSO-CUT-1        2767        593   529.E-03
  OSSO-CUT-1        2768        493   688.E-03
  OSSO-CUT-1        2768        642   688.E-03
  OSSO-CUT-1        2769        494   498.E-03
  OSSO-CUT-1        2770        494   549.E-03
  OSSO-CUT-1        2770        499   549.E-03
  OSSO-CUT-1        2771        496   373.E-03
  OSSO-CUT-1        2771        591   373.E-03
  OSSO-CUT-1        2772        498   496.E-03
  OSSO-CUT-1        2772        689   496.E-03
  OSSO-CUT-1        2773        498   523.E-03
  OSSO-CUT-1        2773        499   523.E-03
  OSSO-CUT-1        2774        499   534.E-03
  OSSO-CUT-1        2774        607   534.E-03
  OSSO-CUT-1        2775        500   299.E-03
  OSSO-CUT-1        2775        717   299.E-03
  OSSO-CUT-1        2776        500   258.E-03
  OSSO-CUT-1        2776        502   258.E-03
  OSSO-CUT-1        2777        501   252.E-03
  OSSO-CUT-1        2777        503   252.E-03
  OSSO-CUT-1        2778        501   294.E-03
  OSSO-CUT-1        2778       1015   294.E-03
  OSSO-CUT-1        2779        501   255.E-03
  OSSO-CUT-1        2779        996   255.E-03
  OSSO-CUT-1        2780        501   212.E-03
  OSSO-CUT-1        2780        504   212.E-03
  OSSO-CUT-1        2781        502   217.E-03
  OSSO-CUT-1        2781       1042   217.E-03
  OSSO-CUT-1        2782        502   263.E-03
  OSSO-CUT-1        2782        995   263.E-03
  OSSO-CUT-1        2783        503   195.E-03
  OSSO-CUT-1        2783       1031   195.E-03
  OSSO-CUT-1        2784        503   226.E-03
  OSSO-CUT-1        2784       1032   226.E-03
  OSSO-CUT-1        2785        504   183.E-03
  OSSO-CUT-1        2785       1042   183.E-03
  OSSO-CUT-1        2786        504   159.E-03
  OSSO-CUT-1        2786       1031   159.E-03
  OSSO-CUT-1        2787        505   262.E-03
  OSSO-CUT-1        2787        825   262.E-03
  OSSO-CUT-1        2788        505   221.E-03
  OSSO-CUT-1        2788       1006   221.E-03
  OSSO-CUT-1        2789        506   291.E-03
  OSSO-CUT-1        2789        771   291.E-03
  OSSO-CUT-1        2790        506   270.E-03
  OSSO-CUT-1        2790        790   270.E-03
  OSSO-CUT-1        2791        506   292.E-03
  OSSO-CUT-1        2791        863   292.E-03
  OSSO-CUT-1        2792        507   330.E-03
  OSSO-CUT-1        2792        509   330.E-03
  OSSO-CUT-1        2793        508   366.E-03
  OSSO-CUT-1        2793        669   366.E-03
  OSSO-CUT-1        2794        508   375.E-03
  OSSO-CUT-1        2794        509   375.E-03
  OSSO-CUT-1        2795        510   470.E-03
  OSSO-CUT-1        2795        511   470.E-03
  OSSO-CUT-1        2796        510   429.E-03
  OSSO-CUT-1        2796        697   429.E-03
  OSSO-CUT-1        2797        511   490.E-03
  OSSO-CUT-1        2798        512   133.E-03
  OSSO-CUT-1        2798        608   133.E-03
  OSSO-CUT-1        2799        512   152.E-03
  OSSO-CUT-1        2799        625   152.E-03
  OSSO-CUT-1        2800        513    93.E-03
  OSSO-CUT-1        2800        515    93.E-03
  OSSO-CUT-1        2801        513    90.E-03
  OSSO-CUT-1        2801        590    90.E-03
  OSSO-CUT-1        2802        515   109.E-03
  OSSO-CUT-1        2802        661   109.E-03
  OSSO-CUT-1        2803        516   143.E-03
  OSSO-CUT-1        2803        518   143.E-03
  OSSO-CUT-1        2804        517   188.E-03
  OSSO-CUT-1        2805        517   146.E-03
  OSSO-CUT-1        2805        518   146.E-03
  OSSO-CUT-1        2806        519   175.E-03
  OSSO-CUT-1        2806        626   175.E-03
  OSSO-CUT-1        2807        519   185.E-03
  OSSO-CUT-1        2807        683   185.E-03
  OSSO-CUT-1        2808        520   203.E-03
  OSSO-CUT-1        2808        612   203.E-03
  OSSO-CUT-1        2809        520   176.E-03
  OSSO-CUT-1        2809       1076   176.E-03
  OSSO-CUT-1        2810        521   157.E-03
  OSSO-CUT-1        2810       1076   157.E-03
  OSSO-CUT-1        2811        521   148.E-03
  OSSO-CUT-1        2812        522   271.E-03
  OSSO-CUT-1        2813        523   273.E-03
  OSSO-CUT-1        2813       1079   273.E-03
  OSSO-CUT-1        2814        524   241.E-03
  OSSO-CUT-1        2814        616   241.E-03
  OSSO-CUT-1        2815        525   392.E-03
  OSSO-CUT-1        2815        619   392.E-03
  OSSO-CUT-1        2816        526   326.E-03
  OSSO-CUT-1        2816        610   326.E-03
  OSSO-CUT-1        2817        527   300.E-03
  OSSO-CUT-1        2817        624   300.E-03
  OSSO-CUT-1        2818        528         1.
  OSSO-CUT-1        2819        529         1.
  OSSO-CUT-1        2820        530   834.E-03
  OSSO-CUT-1        2820        652   834.E-03
  OSSO-CUT-1        2821        532   479.E-03
  OSSO-CUT-1        2821        617   479.E-03
  OSSO-CUT-1        2822        532   499.E-03
  OSSO-CUT-1        2822        535   499.E-03
  OSSO-CUT-1        2823        534   527.E-03
  OSSO-CUT-1        2823        535   527.E-03
  OSSO-CUT-1        2824        534   539.E-03
  OSSO-CUT-1        2825        535   525.E-03
  OSSO-CUT-1        2825        633   525.E-03
  OSSO-CUT-1        2826        536   225.E-03
  OSSO-CUT-1        2826        595   225.E-03
  OSSO-CUT-1        2827        536   266.E-03
  OSSO-CUT-1        2827        681   266.E-03
  OSSO-CUT-1        2828        537   151.E-03
  OSSO-CUT-1        2828        626   151.E-03
  OSSO-CUT-1        2829        538   115.E-03
  OSSO-CUT-1        2829        539   115.E-03
  OSSO-CUT-1        2830        538   121.E-03
  OSSO-CUT-1        2830        632   121.E-03
  OSSO-CUT-1        2831        539   120.E-03
  OSSO-CUT-1        2831        608   120.E-03
  OSSO-CUT-1        2832        540   112.E-03
  OSSO-CUT-1        2833        540    98.E-03
  OSSO-CUT-1        2833        556    98.E-03
  OSSO-CUT-1        2834        541   300.E-03
  OSSO-CUT-1        2834        550   300.E-03
  OSSO-CUT-1        2835        541   306.E-03
  OSSO-CUT-1        2836        542   276.E-03
  OSSO-CUT-1        2837        545   297.E-03
  OSSO-CUT-1        2837        550   297.E-03
  OSSO-CUT-1        2838        545   299.E-03
  OSSO-CUT-1        2838        685   299.E-03
  OSSO-CUT-1        2839        546   326.E-03
  OSSO-CUT-1        2839        549   326.E-03
  OSSO-CUT-1        2840        546   333.E-03
  OSSO-CUT-1        2840        971   333.E-03
  OSSO-CUT-1        2841        546   335.E-03
  OSSO-CUT-1        2841       1088   335.E-03
  OSSO-CUT-1        2842        546   327.E-03
  OSSO-CUT-1        2842       1012   327.E-03
  OSSO-CUT-1        2843        548   322.E-03
  OSSO-CUT-1        2844        550   304.E-03
  OSSO-CUT-1        2844        629   304.E-03
  OSSO-CUT-1        2845        551   324.E-03
  OSSO-CUT-1        2845        688   324.E-03
  OSSO-CUT-1        2846        552    63.E-03
  OSSO-CUT-1        2846        676    63.E-03
  OSSO-CUT-1        2847        552    66.E-03
  OSSO-CUT-1        2847        667    66.E-03
  OSSO-CUT-1        2848        552    62.E-03
  OSSO-CUT-1        2848        729    62.E-03
  OSSO-CUT-1        2849        553    68.E-03
  OSSO-CUT-1        2849        676    68.E-03
  OSSO-CUT-1        2850        554    78.E-03
  OSSO-CUT-1        2850        883    78.E-03
  OSSO-CUT-1        2851        555   220.E-03
  OSSO-CUT-1        2851        716   220.E-03
  OSSO-CUT-1        2852        556   107.E-03
  OSSO-CUT-1        2853        557    64.E-03
  OSSO-CUT-1        2853        676    64.E-03
  OSSO-CUT-1        2854        557    63.E-03
  OSSO-CUT-1        2854        728    63.E-03
  OSSO-CUT-1        2855        557    69.E-03
  OSSO-CUT-1        2855        575    69.E-03
  OSSO-CUT-1        2856        558   144.E-03
  OSSO-CUT-1        2856        879   144.E-03
  OSSO-CUT-1        2857        558   121.E-03
  OSSO-CUT-1        2857        559   121.E-03
  OSSO-CUT-1        2858        559   118.E-03
  OSSO-CUT-1        2858        807   118.E-03
  OSSO-CUT-1        2859        560   322.E-03
  OSSO-CUT-1        2859        654   322.E-03
  OSSO-CUT-1        2860        560   313.E-03
  OSSO-CUT-1        2860        795   313.E-03
  OSSO-CUT-1        2861        561   328.E-03
  OSSO-CUT-1        2862        561   317.E-03
  OSSO-CUT-1        2862        795   317.E-03
  OSSO-CUT-1        2863        562   198.E-03
  OSSO-CUT-1        2864        563   288.E-03
  OSSO-CUT-1        2864        673   288.E-03
  OSSO-CUT-1        2865        564   348.E-03
  OSSO-CUT-1        2865        665   348.E-03
  OSSO-CUT-1        2866        564   358.E-03
  OSSO-CUT-1        2866        963   358.E-03
  OSSO-CUT-1        2867        565   364.E-03
  OSSO-CUT-1        2867        718   364.E-03
  OSSO-CUT-1        2868        565   390.E-03
  OSSO-CUT-1        2868        884   390.E-03
  OSSO-CUT-1        2869        565   386.E-03
  OSSO-CUT-1        2869        721   386.E-03
  OSSO-CUT-1        2870        566   145.E-03
  OSSO-CUT-1        2870        658   145.E-03
  OSSO-CUT-1        2871        566   164.E-03
  OSSO-CUT-1        2871       1094   164.E-03
  OSSO-CUT-1        2872        567   322.E-03
  OSSO-CUT-1        2872        573   322.E-03
  OSSO-CUT-1        2873        567   314.E-03
  OSSO-CUT-1        2873        629   314.E-03
  OSSO-CUT-1        2874        567   309.E-03
  OSSO-CUT-1        2874        685   309.E-03
  OSSO-CUT-1        2875        568   378.E-03
  OSSO-CUT-1        2875        674   378.E-03
  OSSO-CUT-1        2876        569   273.E-03
  OSSO-CUT-1        2876        601   273.E-03
  OSSO-CUT-1        2877        569   312.E-03
  OSSO-CUT-1        2877        705   312.E-03
  OSSO-CUT-1        2878        569   348.E-03
  OSSO-CUT-1        2878        674   348.E-03
  OSSO-CUT-1        2879        570   387.E-03
  OSSO-CUT-1        2879        697   387.E-03
  OSSO-CUT-1        2880        570   353.E-03
  OSSO-CUT-1        2880        666   353.E-03
  OSSO-CUT-1        2881        571   428.E-03
  OSSO-CUT-1        2881        678   428.E-03
  OSSO-CUT-1        2882        572   319.E-03
  OSSO-CUT-1        2882        687   319.E-03
  OSSO-CUT-1        2883        572   325.E-03
  OSSO-CUT-1        2883       1090   325.E-03
  OSSO-CUT-1        2884        572   321.E-03
  OSSO-CUT-1        2884        670   321.E-03
  OSSO-CUT-1        2885        573   348.E-03
  OSSO-CUT-1        2885        574   348.E-03
  OSSO-CUT-1        2886        573   358.E-03
  OSSO-CUT-1        2886        822   358.E-03
  OSSO-CUT-1        2887        574   380.E-03
  OSSO-CUT-1        2887        711   380.E-03
  OSSO-CUT-1        2888        575    71.E-03
  OSSO-CUT-1        2888        576    71.E-03
  OSSO-CUT-1        2889        575    77.E-03
  OSSO-CUT-1        2889        634    77.E-03
  OSSO-CUT-1        2890        576    71.E-03
  OSSO-CUT-1        2890        728    71.E-03
  OSSO-CUT-1        2891        576    87.E-03
  OSSO-CUT-1        2891        664    87.E-03
  OSSO-CUT-1        2892        578   830.E-03
  OSSO-CUT-1        2892        652   830.E-03
  OSSO-CUT-1        2893        579   310.E-03
  OSSO-CUT-1        2893        714   310.E-03
  OSSO-CUT-1        2894        579   375.E-03
  OSSO-CUT-1        2894        636   375.E-03
  OSSO-CUT-1        2895        579   349.E-03
  OSSO-CUT-1        2895        594   349.E-03
  OSSO-CUT-1        2896        580   424.E-03
  OSSO-CUT-1        2896        638   424.E-03
  OSSO-CUT-1        2897        582   367.E-03
  OSSO-CUT-1        2897        785   367.E-03
  OSSO-CUT-1        2898        582   407.E-03
  OSSO-CUT-1        2898        710   407.E-03
  OSSO-CUT-1        2899        582   423.E-03
  OSSO-CUT-1        2899        596   423.E-03
  OSSO-CUT-1        2900        583   553.E-03
  OSSO-CUT-1        2900        587   553.E-03
  OSSO-CUT-1        2901        583   548.E-03
  OSSO-CUT-1        2901        584   548.E-03
  OSSO-CUT-1        2902        585   658.E-03
  OSSO-CUT-1        2902        651   658.E-03
  OSSO-CUT-1        2903        585   620.E-03
  OSSO-CUT-1        2903        649   620.E-03
  OSSO-CUT-1        2904        586   570.E-03
  OSSO-CUT-1        2904        656   570.E-03
  OSSO-CUT-1        2905        587   521.E-03
  OSSO-CUT-1        2905        690   521.E-03
  OSSO-CUT-1        2906        587   534.E-03
  OSSO-CUT-1        2906        607   534.E-03
  OSSO-CUT-1        2907        588   516.E-03
  OSSO-CUT-1        2907        597   516.E-03
  OSSO-CUT-1        2908        588   471.E-03
  OSSO-CUT-1        2908        704   471.E-03
  OSSO-CUT-1        2909        588   479.E-03
  OSSO-CUT-1        2909        712   479.E-03
  OSSO-CUT-1        2910        589   214.E-03
  OSSO-CUT-1        2910        952   214.E-03
  OSSO-CUT-1        2911        589   184.E-03
  OSSO-CUT-1        2911        660   184.E-03
  OSSO-CUT-1        2912        589   217.E-03
  OSSO-CUT-1        2912       1109   217.E-03
  OSSO-CUT-1        2913        590   104.E-03
  OSSO-CUT-1        2913        984   104.E-03
  OSSO-CUT-1        2914        591   385.E-03
  OSSO-CUT-1        2914        721   385.E-03
  OSSO-CUT-1        2915        592   417.E-03
  OSSO-CUT-1        2915        659   417.E-03
  OSSO-CUT-1        2916        592   404.E-03
  OSSO-CUT-1        2916        721   404.E-03
  OSSO-CUT-1        2917        593   476.E-03
  OSSO-CUT-1        2917        643   476.E-03
  OSSO-CUT-1        2918        593   462.E-03
  OSSO-CUT-1        2918       1082   462.E-03
  OSSO-CUT-1        2919        594   363.E-03
  OSSO-CUT-1        2919        630   363.E-03
  OSSO-CUT-1        2920        595   202.E-03
  OSSO-CUT-1        2920        733   202.E-03
  OSSO-CUT-1        2921        596   424.E-03
  OSSO-CUT-1        2921       1080   424.E-03
  OSSO-CUT-1        2922        598   331.E-03
  OSSO-CUT-1        2922        720   331.E-03
  OSSO-CUT-1        2923        598   333.E-03
  OSSO-CUT-1        2923       1085   333.E-03
  OSSO-CUT-1        2924        598   330.E-03
  OSSO-CUT-1        2924       1091   330.E-03
  OSSO-CUT-1        2925        599   198.E-03
  OSSO-CUT-1        2925        695   198.E-03
  OSSO-CUT-1        2926        599   216.E-03
  OSSO-CUT-1        2926        696   216.E-03
  OSSO-CUT-1        2927        599   210.E-03
  OSSO-CUT-1        2927        760   210.E-03
  OSSO-CUT-1        2928        602   118.E-03
  OSSO-CUT-1        2928        664   118.E-03
  OSSO-CUT-1        2929        602   161.E-03
  OSSO-CUT-1        2930        605   491.E-03
  OSSO-CUT-1        2930        783   491.E-03
  OSSO-CUT-1        2931        605   525.E-03
  OSSO-CUT-1        2931       1098   525.E-03
  OSSO-CUT-1        2932        607   503.E-03
  OSSO-CUT-1        2932        689   503.E-03
  OSSO-CUT-1        2933        608   131.E-03
  OSSO-CUT-1        2933        882   131.E-03
  OSSO-CUT-1        2934        608   123.E-03
  OSSO-CUT-1        2934        632   123.E-03
  OSSO-CUT-1        2935        609   334.E-03
  OSSO-CUT-1        2935        677   334.E-03
  OSSO-CUT-1        2936        609   316.E-03
  OSSO-CUT-1        2936        610   316.E-03
  OSSO-CUT-1        2937        610   288.E-03
  OSSO-CUT-1        2937       1073   288.E-03
  OSSO-CUT-1        2938        610   297.E-03
  OSSO-CUT-1        2938        613   297.E-03
  OSSO-CUT-1        2939        611   317.E-03
  OSSO-CUT-1        2940        612   165.E-03
  OSSO-CUT-1        2940       1076   165.E-03
  OSSO-CUT-1        2941        613   291.E-03
  OSSO-CUT-1        2941        624   291.E-03
  OSSO-CUT-1        2942        614   284.E-03
  OSSO-CUT-1        2942        624   284.E-03
  OSSO-CUT-1        2943        614   276.E-03
  OSSO-CUT-1        2943       1079   276.E-03
  OSSO-CUT-1        2944        615   261.E-03
  OSSO-CUT-1        2944       1079   261.E-03
  OSSO-CUT-1        2945        617   463.E-03
  OSSO-CUT-1        2945        618   463.E-03
  OSSO-CUT-1        2946        617   504.E-03
  OSSO-CUT-1        2946        633   504.E-03
  OSSO-CUT-1        2947        618   422.E-03
  OSSO-CUT-1        2947        619   422.E-03
  OSSO-CUT-1        2948        619   383.E-03
  OSSO-CUT-1        2948        620   383.E-03
  OSSO-CUT-1        2949        620   380.E-03
  OSSO-CUT-1        2949        640   380.E-03
  OSSO-CUT-1        2950        620   346.E-03
  OSSO-CUT-1        2950        622   346.E-03
  OSSO-CUT-1        2951        621   131.E-03
  OSSO-CUT-1        2951        623   131.E-03
  OSSO-CUT-1        2952        622   313.E-03
  OSSO-CUT-1        2952        680   313.E-03
  OSSO-CUT-1        2953        623   133.E-03
  OSSO-CUT-1        2953        698   133.E-03
  OSSO-CUT-1        2954        623   133.E-03
  OSSO-CUT-1        2954        734   133.E-03
  OSSO-CUT-1        2955        623   130.E-03
  OSSO-CUT-1        2955        699   130.E-03
  OSSO-CUT-1        2956        625   167.E-03
  OSSO-CUT-1        2956        683   167.E-03
  OSSO-CUT-1        2957        625   143.E-03
  OSSO-CUT-1        2957        882   143.E-03
  OSSO-CUT-1        2958        627   313.E-03
  OSSO-CUT-1        2958        946   313.E-03
  OSSO-CUT-1        2959        627   300.E-03
  OSSO-CUT-1        2959        863   300.E-03
  OSSO-CUT-1        2960        627   307.E-03
  OSSO-CUT-1        2960        668   307.E-03
  OSSO-CUT-1        2961        628   337.E-03
  OSSO-CUT-1        2961        971   337.E-03
  OSSO-CUT-1        2962        628   340.E-03
  OSSO-CUT-1        2962        707   340.E-03
  OSSO-CUT-1        2963        629   314.E-03
  OSSO-CUT-1        2963        745   314.E-03
  OSSO-CUT-1        2964        629   304.E-03
  OSSO-CUT-1        2964        685   304.E-03
  OSSO-CUT-1        2965        630   396.E-03
  OSSO-CUT-1        2965       1082   396.E-03
  OSSO-CUT-1        2966        630   362.E-03
  OSSO-CUT-1        2966        675   362.E-03
  OSSO-CUT-1        2967        631   431.E-03
  OSSO-CUT-1        2967        646   431.E-03
  OSSO-CUT-1        2968        631   427.E-03
  OSSO-CUT-1        2968        659   427.E-03
  OSSO-CUT-1        2969        631   435.E-03
  OSSO-CUT-1        2969        741   435.E-03
  OSSO-CUT-1        2970        632   125.E-03
  OSSO-CUT-1        2970        699   125.E-03
  OSSO-CUT-1        2971        633   528.E-03
  OSSO-CUT-1        2971        921   528.E-03
  OSSO-CUT-1        2972        635   224.E-03
  OSSO-CUT-1        2972        748   224.E-03
  OSSO-CUT-1        2973        635   229.E-03
  OSSO-CUT-1        2973        780   229.E-03
  OSSO-CUT-1        2974        637   200.E-03
  OSSO-CUT-1        2974        713   200.E-03
  OSSO-CUT-1        2975        637   195.E-03
  OSSO-CUT-1        2975        895   195.E-03
  OSSO-CUT-1        2976        637   258.E-03
  OSSO-CUT-1        2976        742   258.E-03
  OSSO-CUT-1        2977        637   246.E-03
  OSSO-CUT-1        2977        813   246.E-03
  OSSO-CUT-1        2978        638   324.E-03
  OSSO-CUT-1        2978        813   324.E-03
  OSSO-CUT-1        2979        638   545.E-03
  OSSO-CUT-1        2979        641   545.E-03
  OSSO-CUT-1        2980        639   656.E-03
  OSSO-CUT-1        2980        772   656.E-03
  OSSO-CUT-1        2981        639   619.E-03
  OSSO-CUT-1        2981       1084   619.E-03
  OSSO-CUT-1        2982        640   409.E-03
  OSSO-CUT-1        2982        725   409.E-03
  OSSO-CUT-1        2983        641   493.E-03
  OSSO-CUT-1        2983        781   493.E-03
  OSSO-CUT-1        2984        642   509.E-03
  OSSO-CUT-1        2984        781   509.E-03
  OSSO-CUT-1        2985        643   390.E-03
  OSSO-CUT-1        2985        674   390.E-03
  OSSO-CUT-1        2986        643   397.E-03
  OSSO-CUT-1        2986        675   397.E-03
  OSSO-CUT-1        2987        644   267.E-03
  OSSO-CUT-1        2987        811   267.E-03
  OSSO-CUT-1        2988        646   440.E-03
  OSSO-CUT-1        2988        830   440.E-03
  OSSO-CUT-1        2989        647   447.E-03
  OSSO-CUT-1        2989        830   447.E-03
  OSSO-CUT-1        2990        647   453.E-03
  OSSO-CUT-1        2990        829   453.E-03
  OSSO-CUT-1        2991        647   462.E-03
  OSSO-CUT-1        2991        694   462.E-03
  OSSO-CUT-1        2992        648   547.E-03
  OSSO-CUT-1        2992        921   547.E-03
  OSSO-CUT-1        2993        648   566.E-03
  OSSO-CUT-1        2993        756   566.E-03
  OSSO-CUT-1        2994        648   584.E-03
  OSSO-CUT-1        2994        649   584.E-03
  OSSO-CUT-1        2995        649   599.E-03
  OSSO-CUT-1        2995        774   599.E-03
  OSSO-CUT-1        2996        650   375.E-03
  OSSO-CUT-1        2996        743   375.E-03
  OSSO-CUT-1        2997        650   365.E-03
  OSSO-CUT-1        2997        671   365.E-03
  OSSO-CUT-1        2998        651   665.E-03
  OSSO-CUT-1        2998        844   665.E-03
  OSSO-CUT-1        2999        651   696.E-03
  OSSO-CUT-1        2999        722   696.E-03
  OSSO-CUT-1        3000        652   777.E-03
  OSSO-CUT-1        3000        723   777.E-03
  OSSO-CUT-1        3001        653   441.E-03
  OSSO-CUT-1        3001        712   441.E-03
  OSSO-CUT-1        3002        654   332.E-03
  OSSO-CUT-1        3002        796   332.E-03
  OSSO-CUT-1        3003        654   342.E-03
  OSSO-CUT-1        3003        950   342.E-03
  OSSO-CUT-1        3004        654   334.E-03
  OSSO-CUT-1        3004        761   334.E-03
  OSSO-CUT-1        3005        655   497.E-03
  OSSO-CUT-1        3005        656   497.E-03
  OSSO-CUT-1        3006        655   455.E-03
  OSSO-CUT-1        3006        885   455.E-03
  OSSO-CUT-1        3007        655   465.E-03
  OSSO-CUT-1        3007        831   465.E-03
  OSSO-CUT-1        3008        656   523.E-03
  OSSO-CUT-1        3008        932   523.E-03
  OSSO-CUT-1        3009        657   170.E-03
  OSSO-CUT-1        3009        733   170.E-03
  OSSO-CUT-1        3010        657   147.E-03
  OSSO-CUT-1        3010        734   147.E-03
  OSSO-CUT-1        3011        657   143.E-03
  OSSO-CUT-1        3011        698   143.E-03
  OSSO-CUT-1        3012        658   143.E-03
  OSSO-CUT-1        3012        734   143.E-03
  OSSO-CUT-1        3013        658   159.E-03
  OSSO-CUT-1        3013        759   159.E-03
  OSSO-CUT-1        3014        660   193.E-03
  OSSO-CUT-1        3014        803   193.E-03
  OSSO-CUT-1        3015        662   318.E-03
  OSSO-CUT-1        3015        670   318.E-03
  OSSO-CUT-1        3016        662   315.E-03
  OSSO-CUT-1        3016        663   315.E-03
  OSSO-CUT-1        3017        663   328.E-03
  OSSO-CUT-1        3017        919   328.E-03
  OSSO-CUT-1        3018        664   121.E-03
  OSSO-CUT-1        3018        691   121.E-03
  OSSO-CUT-1        3019        665   349.E-03
  OSSO-CUT-1        3019        820   349.E-03
  OSSO-CUT-1        3020        666   322.E-03
  OSSO-CUT-1        3020        709   322.E-03
  OSSO-CUT-1        3021        666   333.E-03
  OSSO-CUT-1        3021        672   333.E-03
  OSSO-CUT-1        3022        667    73.E-03
  OSSO-CUT-1        3022        883    73.E-03
  OSSO-CUT-1        3023        667    68.E-03
  OSSO-CUT-1        3023        729    68.E-03
  OSSO-CUT-1        3024        668   316.E-03
  OSSO-CUT-1        3024        946   316.E-03
  OSSO-CUT-1        3025        668   321.E-03
  OSSO-CUT-1        3025        720   321.E-03
  OSSO-CUT-1        3026        669   330.E-03
  OSSO-CUT-1        3026        720   330.E-03
  OSSO-CUT-1        3027        670   330.E-03
  OSSO-CUT-1        3027        840   330.E-03
  OSSO-CUT-1        3028        670   328.E-03
  OSSO-CUT-1        3028        919   328.E-03
  OSSO-CUT-1        3029        671   320.E-03
  OSSO-CUT-1        3029        770   320.E-03
  OSSO-CUT-1        3030        671   348.E-03
  OSSO-CUT-1        3030        672   348.E-03
  OSSO-CUT-1        3031        672   372.E-03
  OSSO-CUT-1        3031        697   372.E-03
  OSSO-CUT-1        3032        672   310.E-03
  OSSO-CUT-1        3032        810   310.E-03
  OSSO-CUT-1        3033        673   325.E-03
  OSSO-CUT-1        3033        785   325.E-03
  OSSO-CUT-1        3034        675   415.E-03
  OSSO-CUT-1        3034       1082   415.E-03
  OSSO-CUT-1        3035        675   343.E-03
  OSSO-CUT-1        3035        705   343.E-03
  OSSO-CUT-1        3036        677   322.E-03
  OSSO-CUT-1        3036        708   322.E-03
  OSSO-CUT-1        3037        678   487.E-03
  OSSO-CUT-1        3038        679   236.E-03
  OSSO-CUT-1        3038        835   236.E-03
  OSSO-CUT-1        3039        679   278.E-03
  OSSO-CUT-1        3039        680   278.E-03
  OSSO-CUT-1        3040        682   242.E-03
  OSSO-CUT-1        3040        811   242.E-03
  OSSO-CUT-1        3041        682   213.E-03
  OSSO-CUT-1        3041        762   213.E-03
  OSSO-CUT-1        3042        682   211.E-03
  OSSO-CUT-1        3042        733   211.E-03
  OSSO-CUT-1        3043        684   281.E-03
  OSSO-CUT-1        3043        863   281.E-03
  OSSO-CUT-1        3044        684   259.E-03
  OSSO-CUT-1        3044        790   259.E-03
  OSSO-CUT-1        3045        686   325.E-03
  OSSO-CUT-1        3045       1077   325.E-03
  OSSO-CUT-1        3046        687   314.E-03
  OSSO-CUT-1        3046        732   314.E-03
  OSSO-CUT-1        3047        687   320.E-03
  OSSO-CUT-1        3047       1077   320.E-03
  OSSO-CUT-1        3048        687   325.E-03
  OSSO-CUT-1        3048        797   325.E-03
  OSSO-CUT-1        3049        688   321.E-03
  OSSO-CUT-1        3049        745   321.E-03
  OSSO-CUT-1        3050        688   335.E-03
  OSSO-CUT-1        3050        707   335.E-03
  OSSO-CUT-1        3051        689   480.E-03
  OSSO-CUT-1        3051        694   480.E-03
  OSSO-CUT-1        3052        690   481.E-03
  OSSO-CUT-1        3052        730   481.E-03
  OSSO-CUT-1        3053        691   117.E-03
  OSSO-CUT-1        3053        735   117.E-03
  OSSO-CUT-1        3054        692   382.E-03
  OSSO-CUT-1        3054        693   382.E-03
  OSSO-CUT-1        3055        692   419.E-03
  OSSO-CUT-1        3055        715   419.E-03
  OSSO-CUT-1        3056        692   408.E-03
  OSSO-CUT-1        3056        757   408.E-03
  OSSO-CUT-1        3057        693   360.E-03
  OSSO-CUT-1        3057        719   360.E-03
  OSSO-CUT-1        3058        693   381.E-03
  OSSO-CUT-1        3058        757   381.E-03
  OSSO-CUT-1        3059        694   464.E-03
  OSSO-CUT-1        3059        758   464.E-03
  OSSO-CUT-1        3060        695   201.E-03
  OSSO-CUT-1        3060        716   201.E-03
  OSSO-CUT-1        3061        696   231.E-03
  OSSO-CUT-1        3061        760   231.E-03
  OSSO-CUT-1        3062        696   230.E-03
  OSSO-CUT-1        3062        700   230.E-03
  OSSO-CUT-1        3063        698   128.E-03
  OSSO-CUT-1        3063        699   128.E-03
  OSSO-CUT-1        3064        700   222.E-03
  OSSO-CUT-1        3064        716   222.E-03
  OSSO-CUT-1        3065        701   147.E-03
  OSSO-CUT-1        3065        815   147.E-03
  OSSO-CUT-1        3066        701   183.E-03
  OSSO-CUT-1        3066        854   183.E-03
  OSSO-CUT-1        3067        701   185.E-03
  OSSO-CUT-1        3067        748   185.E-03
  OSSO-CUT-1        3068        701   148.E-03
  OSSO-CUT-1        3068        816   148.E-03
  OSSO-CUT-1        3069        702   466.E-03
  OSSO-CUT-1        3069        730   466.E-03
  OSSO-CUT-1        3070        702   445.E-03
  OSSO-CUT-1        3070        749   445.E-03
  OSSO-CUT-1        3071        702   455.E-03
  OSSO-CUT-1        3071        746   455.E-03
  OSSO-CUT-1        3072        703   441.E-03
  OSSO-CUT-1        3072        739   441.E-03
  OSSO-CUT-1        3073        704   439.E-03
  OSSO-CUT-1        3073       1074   439.E-03
  OSSO-CUT-1        3074        706   214.E-03
  OSSO-CUT-1        3074        760   214.E-03
  OSSO-CUT-1        3075        706   217.E-03
  OSSO-CUT-1        3075        839   217.E-03
  OSSO-CUT-1        3076        707   356.E-03
  OSSO-CUT-1        3076        814   356.E-03
  OSSO-CUT-1        3077        708   283.E-03
  OSSO-CUT-1        3077        767   283.E-03
  OSSO-CUT-1        3078        708   309.E-03
  OSSO-CUT-1        3078        709   309.E-03
  OSSO-CUT-1        3079        709   294.E-03
  OSSO-CUT-1        3079       1115   294.E-03
  OSSO-CUT-1        3080        710   426.E-03
  OSSO-CUT-1        3080        753   426.E-03
  OSSO-CUT-1        3081        710   424.E-03
  OSSO-CUT-1        3081       1080   424.E-03
  OSSO-CUT-1        3082        711   403.E-03
  OSSO-CUT-1        3082        786   403.E-03
  OSSO-CUT-1        3083        711   381.E-03
  OSSO-CUT-1        3083        822   381.E-03
  OSSO-CUT-1        3084        712   440.E-03
  OSSO-CUT-1        3084       1074   440.E-03
  OSSO-CUT-1        3085        713   246.E-03
  OSSO-CUT-1        3085        714   246.E-03
  OSSO-CUT-1        3086        713   190.E-03
  OSSO-CUT-1        3086        853   190.E-03
  OSSO-CUT-1        3087        714   236.E-03
  OSSO-CUT-1        3087        854   236.E-03
  OSSO-CUT-1        3088        715   469.E-03
  OSSO-CUT-1        3088        783   469.E-03
  OSSO-CUT-1        3089        715   449.E-03
  OSSO-CUT-1        3089        776   449.E-03
  OSSO-CUT-1        3090        717   301.E-03
  OSSO-CUT-1        3090        995   301.E-03
  OSSO-CUT-1        3091        717   337.E-03
  OSSO-CUT-1        3091        718   337.E-03
  OSSO-CUT-1        3092        719   341.E-03
  OSSO-CUT-1        3092        727   341.E-03
  OSSO-CUT-1        3093        720   325.E-03
  OSSO-CUT-1        3093       1091   325.E-03
  OSSO-CUT-1        3094        722   734.E-03
  OSSO-CUT-1        3094        723   734.E-03
  OSSO-CUT-1        3095        722   698.E-03
  OSSO-CUT-1        3095        832   698.E-03
  OSSO-CUT-1        3096        724   387.E-03
  OSSO-CUT-1        3096        738   387.E-03
  OSSO-CUT-1        3097        724   412.E-03
  OSSO-CUT-1        3097        808   412.E-03
  OSSO-CUT-1        3098        724   408.E-03
  OSSO-CUT-1        3098        725   408.E-03
  OSSO-CUT-1        3099        725   434.E-03
  OSSO-CUT-1        3099       1121   434.E-03
  OSSO-CUT-1        3100        726   331.E-03
  OSSO-CUT-1        3100        836   331.E-03
  OSSO-CUT-1        3101        726   324.E-03
  OSSO-CUT-1        3101        946   324.E-03
  OSSO-CUT-1        3102        726   343.E-03
  OSSO-CUT-1        3102       1086   343.E-03
  OSSO-CUT-1        3103        727   343.E-03
  OSSO-CUT-1        3103       1092   343.E-03
  OSSO-CUT-1        3104        731   317.E-03
  OSSO-CUT-1        3104       1077   317.E-03
  OSSO-CUT-1        3105        731   310.E-03
  OSSO-CUT-1        3105        732   310.E-03
  OSSO-CUT-1        3106        733   177.E-03
  OSSO-CUT-1        3106        759   177.E-03
  OSSO-CUT-1        3107        735   119.E-03
  OSSO-CUT-1        3107        827   119.E-03
  OSSO-CUT-1        3108        736   440.E-03
  OSSO-CUT-1        3108        750   440.E-03
  OSSO-CUT-1        3109        736   428.E-03
  OSSO-CUT-1        3109        869   428.E-03
  OSSO-CUT-1        3110        736   447.E-03
  OSSO-CUT-1        3110        885   447.E-03
  OSSO-CUT-1        3111        737   412.E-03
  OSSO-CUT-1        3111        869   412.E-03
  OSSO-CUT-1        3112        737   394.E-03
  OSSO-CUT-1        3112        897   394.E-03
  OSSO-CUT-1        3113        738   395.E-03
  OSSO-CUT-1        3113        744   395.E-03
  OSSO-CUT-1        3114        739   439.E-03
  OSSO-CUT-1        3114        746   439.E-03
  OSSO-CUT-1        3115        739   417.E-03
  OSSO-CUT-1        3115       1103   417.E-03
  OSSO-CUT-1        3116        739   419.E-03
  OSSO-CUT-1        3116        747   419.E-03
  OSSO-CUT-1        3117        740   440.E-03
  OSSO-CUT-1        3117        794   440.E-03
  OSSO-CUT-1        3118        740   438.E-03
  OSSO-CUT-1        3118        953   438.E-03
  OSSO-CUT-1        3119        741   438.E-03
  OSSO-CUT-1        3119        830   438.E-03
  OSSO-CUT-1        3120        742   360.E-03
  OSSO-CUT-1        3120        743   360.E-03
  OSSO-CUT-1        3121        742   367.E-03
  OSSO-CUT-1        3121        781   367.E-03
  OSSO-CUT-1        3122        742   255.E-03
  OSSO-CUT-1        3122        845   255.E-03
  OSSO-CUT-1        3123        744   417.E-03
  OSSO-CUT-1        3123        808   417.E-03
  OSSO-CUT-1        3124        744   405.E-03
  OSSO-CUT-1        3124        877   405.E-03
  OSSO-CUT-1        3125        744   426.E-03
  OSSO-CUT-1        3125        874   426.E-03
  OSSO-CUT-1        3126        746   432.E-03
  OSSO-CUT-1        3126        819   432.E-03
  OSSO-CUT-1        3127        747   397.E-03
  OSSO-CUT-1        3127       1072   397.E-03
  OSSO-CUT-1        3128        749   427.E-03
  OSSO-CUT-1        3128        819   427.E-03
  OSSO-CUT-1        3129        750   425.E-03
  OSSO-CUT-1        3129        798   425.E-03
  OSSO-CUT-1        3130        751   577.E-03
  OSSO-CUT-1        3130        782   577.E-03
  OSSO-CUT-1        3131        751   595.E-03
  OSSO-CUT-1        3131        914   595.E-03
  OSSO-CUT-1        3132        751   575.E-03
  OSSO-CUT-1        3132        779   575.E-03
  OSSO-CUT-1        3133        751   558.E-03
  OSSO-CUT-1        3133        900   558.E-03
  OSSO-CUT-1        3134        752   432.E-03
  OSSO-CUT-1        3134        753   432.E-03
  OSSO-CUT-1        3135        752   436.E-03
  OSSO-CUT-1        3135       1081   436.E-03
  OSSO-CUT-1        3136        752   424.E-03
  OSSO-CUT-1        3136       1101   424.E-03
  OSSO-CUT-1        3137        752   421.E-03
  OSSO-CUT-1        3137        786   421.E-03
  OSSO-CUT-1        3138        754   493.E-03
  OSSO-CUT-1        3138        787   493.E-03
  OSSO-CUT-1        3139        754   522.E-03
  OSSO-CUT-1        3139        902   522.E-03
  OSSO-CUT-1        3140        756   579.E-03
  OSSO-CUT-1        3140        774   579.E-03
  OSSO-CUT-1        3141        756   550.E-03
  OSSO-CUT-1        3141        902   550.E-03
  OSSO-CUT-1        3142        756   566.E-03
  OSSO-CUT-1        3142        841   566.E-03
  OSSO-CUT-1        3143        758   450.E-03
  OSSO-CUT-1        3143        829   450.E-03
  OSSO-CUT-1        3144        758   448.E-03
  OSSO-CUT-1        3144        926   448.E-03
  OSSO-CUT-1        3145        759   173.E-03
  OSSO-CUT-1        3145       1094   173.E-03
  OSSO-CUT-1        3146        759   192.E-03
  OSSO-CUT-1        3146        762   192.E-03
  OSSO-CUT-1        3147        760   234.E-03
  OSSO-CUT-1        3147        804   234.E-03
  OSSO-CUT-1        3148        761   349.E-03
  OSSO-CUT-1        3148        821   349.E-03
  OSSO-CUT-1        3149        761   345.E-03
  OSSO-CUT-1        3149        823   345.E-03
  OSSO-CUT-1        3150        762   192.E-03
  OSSO-CUT-1        3150       1094   192.E-03
  OSSO-CUT-1        3151        763   184.E-03
  OSSO-CUT-1        3151       1094   184.E-03
  OSSO-CUT-1        3152        763   199.E-03
  OSSO-CUT-1        3152        803   199.E-03
  OSSO-CUT-1        3153        764   331.E-03
  OSSO-CUT-1        3153        797   331.E-03
  OSSO-CUT-1        3154        764   328.E-03
  OSSO-CUT-1        3154       1077   328.E-03
  OSSO-CUT-1        3155        764   341.E-03
  OSSO-CUT-1        3155       1099   341.E-03
  OSSO-CUT-1        3156        766   327.E-03
  OSSO-CUT-1        3156        834   327.E-03
  OSSO-CUT-1        3157        767   256.E-03
  OSSO-CUT-1        3157        768   256.E-03
  OSSO-CUT-1        3158        767   268.E-03
  OSSO-CUT-1        3158       1115   268.E-03
  OSSO-CUT-1        3159        767   242.E-03
  OSSO-CUT-1        3159        868   242.E-03
  OSSO-CUT-1        3160        768   234.E-03
  OSSO-CUT-1        3160        801   234.E-03
  OSSO-CUT-1        3161        768   249.E-03
  OSSO-CUT-1        3161       1107   249.E-03
  OSSO-CUT-1        3162        769   222.E-03
  OSSO-CUT-1        3162        809   222.E-03
  OSSO-CUT-1        3163        769   206.E-03
  OSSO-CUT-1        3163        846   206.E-03
  OSSO-CUT-1        3164        770   283.E-03
  OSSO-CUT-1        3164        810   283.E-03
  OSSO-CUT-1        3165        772   680.E-03
  OSSO-CUT-1        3165        784   680.E-03
  OSSO-CUT-1        3166        772   656.E-03
  OSSO-CUT-1        3166        860   656.E-03
  OSSO-CUT-1        3167        772   633.E-03
  OSSO-CUT-1        3167       1083   633.E-03
  OSSO-CUT-1        3168        773   385.E-03
  OSSO-CUT-1        3168        851   385.E-03
  OSSO-CUT-1        3169        773   375.E-03
  OSSO-CUT-1        3169        814   375.E-03
  OSSO-CUT-1        3170        775   553.E-03
  OSSO-CUT-1        3170        841   553.E-03
  OSSO-CUT-1        3171        775   540.E-03
  OSSO-CUT-1        3171        902   540.E-03
  OSSO-CUT-1        3172        775   545.E-03
  OSSO-CUT-1        3172       1127   545.E-03
  OSSO-CUT-1        3173        776   475.E-03
  OSSO-CUT-1        3173        899   475.E-03
  OSSO-CUT-1        3174        776   458.E-03
  OSSO-CUT-1        3174        826   458.E-03
  OSSO-CUT-1        3175        777   404.E-03
  OSSO-CUT-1        3175        856   404.E-03
  OSSO-CUT-1        3176        778   459.E-03
  OSSO-CUT-1        3176        826   459.E-03
  OSSO-CUT-1        3177        778   483.E-03
  OSSO-CUT-1        3177       1041   483.E-03
  OSSO-CUT-1        3178        778   477.E-03
  OSSO-CUT-1        3178       1036   477.E-03
  OSSO-CUT-1        3179        779   591.E-03
  OSSO-CUT-1        3179        913   591.E-03
  OSSO-CUT-1        3180        781   345.E-03
  OSSO-CUT-1        3180        813   345.E-03
  OSSO-CUT-1        3181        782   574.E-03
  OSSO-CUT-1        3181       1097   574.E-03
  OSSO-CUT-1        3182        782   593.E-03
  OSSO-CUT-1        3182       1083   593.E-03
  OSSO-CUT-1        3183        782   559.E-03
  OSSO-CUT-1        3183       1098   559.E-03
  OSSO-CUT-1        3184        783   518.E-03
  OSSO-CUT-1        3184        900   518.E-03
  OSSO-CUT-1        3185        783   495.E-03
  OSSO-CUT-1        3185        899   495.E-03
  OSSO-CUT-1        3186        784   701.E-03
  OSSO-CUT-1        3186        800   701.E-03
  OSSO-CUT-1        3187        786   405.E-03
  OSSO-CUT-1        3187        851   405.E-03
  OSSO-CUT-1        3188        788   456.E-03
  OSSO-CUT-1        3188       1121   456.E-03
  OSSO-CUT-1        3189        788   477.E-03
  OSSO-CUT-1        3189        850   477.E-03
  OSSO-CUT-1        3190        789   240.E-03
  OSSO-CUT-1        3190        790   240.E-03
  OSSO-CUT-1        3191        791   347.E-03
  OSSO-CUT-1        3191       1088   347.E-03
  OSSO-CUT-1        3192        791   357.E-03
  OSSO-CUT-1        3192        972   357.E-03
  OSSO-CUT-1        3193        791   362.E-03
  OSSO-CUT-1        3193        866   362.E-03
  OSSO-CUT-1        3194        791   352.E-03
  OSSO-CUT-1        3194       1089   352.E-03
  OSSO-CUT-1        3195        792   289.E-03
  OSSO-CUT-1        3195       1106   289.E-03
  OSSO-CUT-1        3196        792   259.E-03
  OSSO-CUT-1        3196        890   259.E-03
  OSSO-CUT-1        3197        792   288.E-03
  OSSO-CUT-1        3197        968   288.E-03
  OSSO-CUT-1        3198        793   441.E-03
  OSSO-CUT-1        3198        794   441.E-03
  OSSO-CUT-1        3199        793   443.E-03
  OSSO-CUT-1        3199        903   443.E-03
  OSSO-CUT-1        3200        793   448.E-03
  OSSO-CUT-1        3200        889   448.E-03
  OSSO-CUT-1        3201        794   444.E-03
  OSSO-CUT-1        3201        861   444.E-03
  OSSO-CUT-1        3202        795   324.E-03
  OSSO-CUT-1        3202        796   324.E-03
  OSSO-CUT-1        3203        796   340.E-03
  OSSO-CUT-1        3203        820   340.E-03
  OSSO-CUT-1        3204        797   337.E-03
  OSSO-CUT-1        3204       1099   337.E-03
  OSSO-CUT-1        3205        797   331.E-03
  OSSO-CUT-1        3205       1090   331.E-03
  OSSO-CUT-1        3206        798   397.E-03
  OSSO-CUT-1        3206        865   397.E-03
  OSSO-CUT-1        3207        799   680.E-03
  OSSO-CUT-1        3207        800   680.E-03
  OSSO-CUT-1        3208        799   653.E-03
  OSSO-CUT-1        3208        881   653.E-03
  OSSO-CUT-1        3209        800   669.E-03
  OSSO-CUT-1        3209        860   669.E-03
  OSSO-CUT-1        3210        801   212.E-03
  OSSO-CUT-1        3210        868   212.E-03
  OSSO-CUT-1        3211        801   213.E-03
  OSSO-CUT-1        3211        871   213.E-03
  OSSO-CUT-1        3212        802   363.E-03
  OSSO-CUT-1        3212        824   363.E-03
  OSSO-CUT-1        3213        802   377.E-03
  OSSO-CUT-1        3213        975   377.E-03
  OSSO-CUT-1        3214        803   215.E-03
  OSSO-CUT-1        3214       1109   215.E-03
  OSSO-CUT-1        3215        804   264.E-03
  OSSO-CUT-1        3215       1073   264.E-03
  OSSO-CUT-1        3216        804   239.E-03
  OSSO-CUT-1        3216        839   239.E-03
  OSSO-CUT-1        3217        806   342.E-03
  OSSO-CUT-1        3217        823   342.E-03
  OSSO-CUT-1        3218        806   339.E-03
  OSSO-CUT-1        3218        858   339.E-03
  OSSO-CUT-1        3219        807   144.E-03
  OSSO-CUT-1        3219        879   144.E-03
  OSSO-CUT-1        3220        807   138.E-03
  OSSO-CUT-1        3220        870   138.E-03
  OSSO-CUT-1        3221        808   430.E-03
  OSSO-CUT-1        3221       1121   430.E-03
  OSSO-CUT-1        3222        809   191.E-03
  OSSO-CUT-1        3222        928   191.E-03
  OSSO-CUT-1        3223        810   248.E-03
  OSSO-CUT-1        3223        847   248.E-03
  OSSO-CUT-1        3224        811   262.E-03
  OSSO-CUT-1        3224        812   262.E-03
  OSSO-CUT-1        3225        812   276.E-03
  OSSO-CUT-1        3225        905   276.E-03
  OSSO-CUT-1        3226        814   378.E-03
  OSSO-CUT-1        3226        897   378.E-03
  OSSO-CUT-1        3227        815   125.E-03
  OSSO-CUT-1        3227       1095   125.E-03
  OSSO-CUT-1        3228        815   136.E-03
  OSSO-CUT-1        3228       1096   136.E-03
  OSSO-CUT-1        3229        815   153.E-03
  OSSO-CUT-1        3229        853   153.E-03
  OSSO-CUT-1        3230        816   120.E-03
  OSSO-CUT-1        3230       1095   120.E-03
  OSSO-CUT-1        3231        816   119.E-03
  OSSO-CUT-1        3231        873   119.E-03
  OSSO-CUT-1        3232        817   123.E-03
  OSSO-CUT-1        3232        870   123.E-03
  OSSO-CUT-1        3233        817   118.E-03
  OSSO-CUT-1        3233       1110   118.E-03
  OSSO-CUT-1        3234        818   391.E-03
  OSSO-CUT-1        3234        855   391.E-03
  OSSO-CUT-1        3235        818   407.E-03
  OSSO-CUT-1        3235        819   407.E-03
  OSSO-CUT-1        3236        819   411.E-03
  OSSO-CUT-1        3236       1103   411.E-03
  OSSO-CUT-1        3237        820   359.E-03
  OSSO-CUT-1        3237        888   359.E-03
  OSSO-CUT-1        3238        820   350.E-03
  OSSO-CUT-1        3238        950   350.E-03
  OSSO-CUT-1        3239        821   355.E-03
  OSSO-CUT-1        3239        950   355.E-03
  OSSO-CUT-1        3240        822   385.E-03
  OSSO-CUT-1        3240        851   385.E-03
  OSSO-CUT-1        3241        824   348.E-03
  OSSO-CUT-1        3241        836   348.E-03
  OSSO-CUT-1        3242        824   381.E-03
  OSSO-CUT-1        3242       1114   381.E-03
  OSSO-CUT-1        3243        825   293.E-03
  OSSO-CUT-1        3243       1087   293.E-03
  OSSO-CUT-1        3244        825   302.E-03
  OSSO-CUT-1        3244        934   302.E-03
  OSSO-CUT-1        3245        825   270.E-03
  OSSO-CUT-1        3245       1078   270.E-03
  OSSO-CUT-1        3246        826   431.E-03
  OSSO-CUT-1        3246        856   431.E-03
  OSSO-CUT-1        3247        827   118.E-03
  OSSO-CUT-1        3247        873   118.E-03
  OSSO-CUT-1        3248        828   541.E-03
  OSSO-CUT-1        3248        857   541.E-03
  OSSO-CUT-1        3249        828   523.E-03
  OSSO-CUT-1        3249       1041   523.E-03
  OSSO-CUT-1        3250        829   444.E-03
  OSSO-CUT-1        3250        830   444.E-03
  OSSO-CUT-1        3251        831   446.E-03
  OSSO-CUT-1        3251       1081   446.E-03
  OSSO-CUT-1        3252        831   465.E-03
  OSSO-CUT-1        3252        932   465.E-03
  OSSO-CUT-1        3253        832   666.E-03
  OSSO-CUT-1        3253        844   666.E-03
  OSSO-CUT-1        3254        832   664.E-03
  OSSO-CUT-1        3254        881   664.E-03
  OSSO-CUT-1        3255        833   346.E-03
  OSSO-CUT-1        3255        834   346.E-03
  OSSO-CUT-1        3256        833   329.E-03
  OSSO-CUT-1        3256       1106   329.E-03
  OSSO-CUT-1        3257        833   353.E-03
  OSSO-CUT-1        3257        922   353.E-03
  OSSO-CUT-1        3258        833   370.E-03
  OSSO-CUT-1        3258        911   370.E-03
  OSSO-CUT-1        3259        835   207.E-03
  OSSO-CUT-1        3259        872   207.E-03
  OSSO-CUT-1        3260        836   314.E-03
  OSSO-CUT-1        3260        863   314.E-03
  OSSO-CUT-1        3261        837   417.E-03
  OSSO-CUT-1        3261        975   417.E-03
  OSSO-CUT-1        3262        837   437.E-03
  OSSO-CUT-1        3262        992   437.E-03
  OSSO-CUT-1        3263        838   226.E-03
  OSSO-CUT-1        3263        937   226.E-03
  OSSO-CUT-1        3264        838   212.E-03
  OSSO-CUT-1        3264        847   212.E-03
  OSSO-CUT-1        3265        838   178.E-03
  OSSO-CUT-1        3265        943   178.E-03
  OSSO-CUT-1        3266        838   191.E-03
  OSSO-CUT-1        3266        901   191.E-03
  OSSO-CUT-1        3267        839   240.E-03
  OSSO-CUT-1        3267       1107   240.E-03
  OSSO-CUT-1        3268        839   219.E-03
  OSSO-CUT-1        3268        871   219.E-03
  OSSO-CUT-1        3269        840   333.E-03
  OSSO-CUT-1        3269       1090   333.E-03
  OSSO-CUT-1        3270        840   340.E-03
  OSSO-CUT-1        3270        918   340.E-03
  OSSO-CUT-1        3271        841   565.E-03
  OSSO-CUT-1        3271        859   565.E-03
  OSSO-CUT-1        3272        842   245.E-03
  OSSO-CUT-1        3272       1109   245.E-03
  OSSO-CUT-1        3273        842   272.E-03
  OSSO-CUT-1        3273        905   272.E-03
  OSSO-CUT-1        3274        842   245.E-03
  OSSO-CUT-1        3274        952   245.E-03
  OSSO-CUT-1        3275        843   400.E-03
  OSSO-CUT-1        3275        856   400.E-03
  OSSO-CUT-1        3276        843   396.E-03
  OSSO-CUT-1        3276       1112   396.E-03
  OSSO-CUT-1        3277        844   641.E-03
  OSSO-CUT-1        3277        876   641.E-03
  OSSO-CUT-1        3278        845   200.E-03
  OSSO-CUT-1        3278        895   200.E-03
  OSSO-CUT-1        3279        846   172.E-03
  OSSO-CUT-1        3279        928   172.E-03
  OSSO-CUT-1        3280        848   372.E-03
  OSSO-CUT-1        3280        864   372.E-03
  OSSO-CUT-1        3281        848   365.E-03
  OSSO-CUT-1        3281        892   365.E-03
  OSSO-CUT-1        3282        848   361.E-03
  OSSO-CUT-1        3282        920   361.E-03
  OSSO-CUT-1        3283        849   376.E-03
  OSSO-CUT-1        3283       1072   376.E-03
  OSSO-CUT-1        3284        849   369.E-03
  OSSO-CUT-1        3284        936   369.E-03
  OSSO-CUT-1        3285        850   477.E-03
  OSSO-CUT-1        3285        875   477.E-03
  OSSO-CUT-1        3286        850   494.E-03
  OSSO-CUT-1        3286        906   494.E-03
  OSSO-CUT-1        3287        852   126.E-03
  OSSO-CUT-1        3287        927   126.E-03
  OSSO-CUT-1        3288        852   151.E-03
  OSSO-CUT-1        3288        928   151.E-03
  OSSO-CUT-1        3289        852   137.E-03
  OSSO-CUT-1        3289       1096   137.E-03
  OSSO-CUT-1        3290        852   116.E-03
  OSSO-CUT-1        3290       1095   116.E-03
  OSSO-CUT-1        3291        853   164.E-03
  OSSO-CUT-1        3291        895   164.E-03
  OSSO-CUT-1        3292        853   186.E-03
  OSSO-CUT-1        3292        854   186.E-03
  OSSO-CUT-1        3293        855   368.E-03
  OSSO-CUT-1        3293        892   368.E-03
  OSSO-CUT-1        3294        857   554.E-03
  OSSO-CUT-1        3294        938   554.E-03
  OSSO-CUT-1        3295        858   336.E-03
  OSSO-CUT-1        3295        931   336.E-03
  OSSO-CUT-1        3296        859   562.E-03
  OSSO-CUT-1        3296        969   562.E-03
  OSSO-CUT-1        3297        859   554.E-03
  OSSO-CUT-1        3297       1127   554.E-03
  OSSO-CUT-1        3298        860   632.E-03
  OSSO-CUT-1        3298        914   632.E-03
  OSSO-CUT-1        3299        861   447.E-03
  OSSO-CUT-1        3299        889   447.E-03
  OSSO-CUT-1        3300        862   392.E-03
  OSSO-CUT-1        3300        975   392.E-03
  OSSO-CUT-1        3301        864   381.E-03
  OSSO-CUT-1        3301       1072   381.E-03
  OSSO-CUT-1        3302        865   383.E-03
  OSSO-CUT-1        3302        866   383.E-03
  OSSO-CUT-1        3303        865   385.E-03
  OSSO-CUT-1        3303        908   385.E-03
  OSSO-CUT-1        3304        866   372.E-03
  OSSO-CUT-1        3304        908   372.E-03
  OSSO-CUT-1        3305        867   152.E-03
  OSSO-CUT-1        3305        943   152.E-03
  OSSO-CUT-1        3306        867   165.E-03
  OSSO-CUT-1        3306        901   165.E-03
  OSSO-CUT-1        3307        868   229.E-03
  OSSO-CUT-1        3307        937   229.E-03
  OSSO-CUT-1        3308        868   200.E-03
  OSSO-CUT-1        3308        901   200.E-03
  OSSO-CUT-1        3309        869   429.E-03
  OSSO-CUT-1        3309        885   429.E-03
  OSSO-CUT-1        3310        870   138.E-03
  OSSO-CUT-1        3310       1110   138.E-03
  OSSO-CUT-1        3311        871   231.E-03
  OSSO-CUT-1        3311       1107   231.E-03
  OSSO-CUT-1        3312        872   218.E-03
  OSSO-CUT-1        3312        890   218.E-03
  OSSO-CUT-1        3313        873    98.E-03
  OSSO-CUT-1        3313        896    98.E-03
  OSSO-CUT-1        3314        875   485.E-03
  OSSO-CUT-1        3314        887   485.E-03
  OSSO-CUT-1        3315        876   619.E-03
  OSSO-CUT-1        3315       1118   619.E-03
  OSSO-CUT-1        3316        876   639.E-03
  OSSO-CUT-1        3316        881   639.E-03
  OSSO-CUT-1        3317        877   391.E-03
  OSSO-CUT-1        3317        911   391.E-03
  OSSO-CUT-1        3318        878   459.E-03
  OSSO-CUT-1        3318        949   459.E-03
  OSSO-CUT-1        3319        880   362.E-03
  OSSO-CUT-1        3319       1093   362.E-03
  OSSO-CUT-1        3320        880   362.E-03
  OSSO-CUT-1        3320        912   362.E-03
  OSSO-CUT-1        3321        880   329.E-03
  OSSO-CUT-1        3321        934   329.E-03
  OSSO-CUT-1        3322        880   330.E-03
  OSSO-CUT-1        3322       1087   330.E-03
  OSSO-CUT-1        3323        884   414.E-03
  OSSO-CUT-1        3323        925   414.E-03
  OSSO-CUT-1        3324        886   489.E-03
  OSSO-CUT-1        3324        887   489.E-03
  OSSO-CUT-1        3325        886   495.E-03
  OSSO-CUT-1        3325        941   495.E-03
  OSSO-CUT-1        3326        888   379.E-03
  OSSO-CUT-1        3326        945   379.E-03
  OSSO-CUT-1        3327        890   217.E-03
  OSSO-CUT-1        3327        891   217.E-03
  OSSO-CUT-1        3328        892   351.E-03
  OSSO-CUT-1        3328        918   351.E-03
  OSSO-CUT-1        3329        893   434.E-03
  OSSO-CUT-1        3329        955   434.E-03
  OSSO-CUT-1        3330        893   447.E-03
  OSSO-CUT-1        3330        982   447.E-03
  OSSO-CUT-1        3331        893   443.E-03
  OSSO-CUT-1        3331        903   443.E-03
  OSSO-CUT-1        3332        894   585.E-03
  OSSO-CUT-1        3332       1122   585.E-03
  OSSO-CUT-1        3333        894   573.E-03
  OSSO-CUT-1        3333       1125   573.E-03
  OSSO-CUT-1        3334        894   585.E-03
  OSSO-CUT-1        3334       1126   585.E-03
  OSSO-CUT-1        3335        895   160.E-03
  OSSO-CUT-1        3335       1096   160.E-03
  OSSO-CUT-1        3336        896   101.E-03
  OSSO-CUT-1        3336        927   101.E-03
  OSSO-CUT-1        3337        896   105.E-03
  OSSO-CUT-1        3337       1095   105.E-03
  OSSO-CUT-1        3338        897   389.E-03
  OSSO-CUT-1        3338        940   389.E-03
  OSSO-CUT-1        3339        898   411.E-03
  OSSO-CUT-1        3339        986   411.E-03
  OSSO-CUT-1        3340        898   400.E-03
  OSSO-CUT-1        3340       1038   400.E-03
  OSSO-CUT-1        3341        899   498.E-03
  OSSO-CUT-1        3341       1041   498.E-03
  OSSO-CUT-1        3342        900   538.E-03
  OSSO-CUT-1        3342       1098   538.E-03
  OSSO-CUT-1        3343        901   173.E-03
  OSSO-CUT-1        3343       1100   173.E-03
  OSSO-CUT-1        3344        902   534.E-03
  OSSO-CUT-1        3344        921   534.E-03
  OSSO-CUT-1        3345        903   455.E-03
  OSSO-CUT-1        3345        990   455.E-03
  OSSO-CUT-1        3346        904   401.E-03
  OSSO-CUT-1        3346       1001   401.E-03
  OSSO-CUT-1        3347        904   388.E-03
  OSSO-CUT-1        3347        929   388.E-03
  OSSO-CUT-1        3348        905   296.E-03
  OSSO-CUT-1        3348        947   296.E-03
  OSSO-CUT-1        3349        906   516.E-03
  OSSO-CUT-1        3349       1020   516.E-03
  OSSO-CUT-1        3350        907   356.E-03
  OSSO-CUT-1        3350        909   356.E-03
  OSSO-CUT-1        3351        907   371.E-03
  OSSO-CUT-1        3351        910   371.E-03
  OSSO-CUT-1        3352        907   367.E-03
  OSSO-CUT-1        3352        936   367.E-03
  OSSO-CUT-1        3353        907   352.E-03
  OSSO-CUT-1        3353       1099   352.E-03
  OSSO-CUT-1        3354        908   381.E-03
  OSSO-CUT-1        3354        940   381.E-03
  OSSO-CUT-1        3355        908   368.E-03
  OSSO-CUT-1        3355        972   368.E-03
  OSSO-CUT-1        3356        909   370.E-03
  OSSO-CUT-1        3356        910   370.E-03
  OSSO-CUT-1        3357        911   387.E-03
  OSSO-CUT-1        3357        923   387.E-03
  OSSO-CUT-1        3358        911   408.E-03
  OSSO-CUT-1        3358        964   408.E-03
  OSSO-CUT-1        3359        912   395.E-03
  OSSO-CUT-1        3359        933   395.E-03
  OSSO-CUT-1        3360        912   390.E-03
  OSSO-CUT-1        3360       1111   390.E-03
  OSSO-CUT-1        3361        913   610.E-03
  OSSO-CUT-1        3361        914   610.E-03
  OSSO-CUT-1        3362        913   599.E-03
  OSSO-CUT-1        3362       1013   599.E-03
  OSSO-CUT-1        3363        914   616.E-03
  OSSO-CUT-1        3363       1083   616.E-03
  OSSO-CUT-1        3364        915   130.E-03
  OSSO-CUT-1        3364        943   130.E-03
  OSSO-CUT-1        3365        916   101.E-03
  OSSO-CUT-1        3365        917   101.E-03
  OSSO-CUT-1        3366        916   121.E-03
  OSSO-CUT-1        3366       1110   121.E-03
  OSSO-CUT-1        3367        918   351.E-03
  OSSO-CUT-1        3367        920   351.E-03
  OSSO-CUT-1        3368        918   340.E-03
  OSSO-CUT-1        3368        919   340.E-03
  OSSO-CUT-1        3369        922   338.E-03
  OSSO-CUT-1        3369        961   338.E-03
  OSSO-CUT-1        3370        922   368.E-03
  OSSO-CUT-1        3370        923   368.E-03
  OSSO-CUT-1        3371        923   380.E-03
  OSSO-CUT-1        3371        981   380.E-03
  OSSO-CUT-1        3372        923   399.E-03
  OSSO-CUT-1        3372       1039   399.E-03
  OSSO-CUT-1        3373        924   247.E-03
  OSSO-CUT-1        3373        952   247.E-03
  OSSO-CUT-1        3374        924   243.E-03
  OSSO-CUT-1        3374        942   243.E-03
  OSSO-CUT-1        3375        925   428.E-03
  OSSO-CUT-1        3375        955   428.E-03
  OSSO-CUT-1        3376        926   447.E-03
  OSSO-CUT-1        3376        960   447.E-03
  OSSO-CUT-1        3377        926   440.E-03
  OSSO-CUT-1        3377        948   440.E-03
  OSSO-CUT-1        3378        929   394.E-03
  OSSO-CUT-1        3378       1075   394.E-03
  OSSO-CUT-1        3379        930   354.E-03
  OSSO-CUT-1        3379        965   354.E-03
  OSSO-CUT-1        3380        930   373.E-03
  OSSO-CUT-1        3380       1104   373.E-03
  OSSO-CUT-1        3381        931   337.E-03
  OSSO-CUT-1        3381        965   337.E-03
  OSSO-CUT-1        3382        931   318.E-03
  OSSO-CUT-1        3382        947   318.E-03
  OSSO-CUT-1        3383        933   423.E-03
  OSSO-CUT-1        3383       1102   423.E-03
  OSSO-CUT-1        3384        933   423.E-03
  OSSO-CUT-1        3384       1035   423.E-03
  OSSO-CUT-1        3385        933   395.E-03
  OSSO-CUT-1        3385       1093   395.E-03
  OSSO-CUT-1        3386        934   296.E-03
  OSSO-CUT-1        3386       1078   296.E-03
  OSSO-CUT-1        3387        935   276.E-03
  OSSO-CUT-1        3387       1078   276.E-03
  OSSO-CUT-1        3388        935   257.E-03
  OSSO-CUT-1        3388       1032   257.E-03
  OSSO-CUT-1        3389        937   255.E-03
  OSSO-CUT-1        3389       1115   255.E-03
  OSSO-CUT-1        3390        938   547.E-03
  OSSO-CUT-1        3390       1054   547.E-03
  OSSO-CUT-1        3391        938   570.E-03
  OSSO-CUT-1        3391       1126   570.E-03
  OSSO-CUT-1        3392        938   562.E-03
  OSSO-CUT-1        3392       1125   562.E-03
  OSSO-CUT-1        3393        939   340.E-03
  OSSO-CUT-1        3393        971   340.E-03
  OSSO-CUT-1        3394        939   354.E-03
  OSSO-CUT-1        3394        972   354.E-03
  OSSO-CUT-1        3395        939   344.E-03
  OSSO-CUT-1        3395       1088   344.E-03
  OSSO-CUT-1        3396        941   498.E-03
  OSSO-CUT-1        3396       1062   498.E-03
  OSSO-CUT-1        3397        941   503.E-03
  OSSO-CUT-1        3397        985   503.E-03
  OSSO-CUT-1        3398        942   215.E-03
  OSSO-CUT-1        3398        952   215.E-03
  OSSO-CUT-1        3399        944   385.E-03
  OSSO-CUT-1        3399        970   385.E-03
  OSSO-CUT-1        3400        944   377.E-03
  OSSO-CUT-1        3400        963   377.E-03
  OSSO-CUT-1        3401        944   394.E-03
  OSSO-CUT-1        3401       1038   394.E-03
  OSSO-CUT-1        3402        945   397.E-03
  OSSO-CUT-1        3402       1010   397.E-03
  OSSO-CUT-1        3403        945   390.E-03
  OSSO-CUT-1        3403        962   390.E-03
  OSSO-CUT-1        3404        945   386.E-03
  OSSO-CUT-1        3404        970   386.E-03
  OSSO-CUT-1        3405        946   324.E-03
  OSSO-CUT-1        3405       1091   324.E-03
  OSSO-CUT-1        3406        947   316.E-03
  OSSO-CUT-1        3406        974   316.E-03
  OSSO-CUT-1        3407        948   434.E-03
  OSSO-CUT-1        3407        980   434.E-03
  OSSO-CUT-1        3408        948   434.E-03
  OSSO-CUT-1        3408       1105   434.E-03
  OSSO-CUT-1        3409        949   453.E-03
  OSSO-CUT-1        3409        979   453.E-03
  OSSO-CUT-1        3410        949   468.E-03
  OSSO-CUT-1        3410        978   468.E-03
  OSSO-CUT-1        3411        951   312.E-03
  OSSO-CUT-1        3411        974   312.E-03
  OSSO-CUT-1        3412        951   305.E-03
  OSSO-CUT-1        3412        968   305.E-03
  OSSO-CUT-1        3413        953   436.E-03
  OSSO-CUT-1        3413       1113   436.E-03
  OSSO-CUT-1        3414        954   443.E-03
  OSSO-CUT-1        3414        955   443.E-03
  OSSO-CUT-1        3415        955   448.E-03
  OSSO-CUT-1        3415        982   448.E-03
  OSSO-CUT-1        3416        956   381.E-03
  OSSO-CUT-1        3416       1111   381.E-03
  OSSO-CUT-1        3417        956   375.E-03
  OSSO-CUT-1        3417        973   375.E-03
  OSSO-CUT-1        3418        957   414.E-03
  OSSO-CUT-1        3418       1111   414.E-03
  OSSO-CUT-1        3419        957   430.E-03
  OSSO-CUT-1        3419       1035   430.E-03
  OSSO-CUT-1        3420        957   448.E-03
  OSSO-CUT-1        3420       1068   448.E-03
  OSSO-CUT-1        3421        958   498.E-03
  OSSO-CUT-1        3421       1050   498.E-03
  OSSO-CUT-1        3422        958   496.E-03
  OSSO-CUT-1        3422       1022   496.E-03
  OSSO-CUT-1        3423        961   319.E-03
  OSSO-CUT-1        3423       1106   319.E-03
  OSSO-CUT-1        3424        961   311.E-03
  OSSO-CUT-1        3424        968   311.E-03
  OSSO-CUT-1        3425        962   402.E-03
  OSSO-CUT-1        3425       1011   402.E-03
  OSSO-CUT-1        3426        964   416.E-03
  OSSO-CUT-1        3426       1039   416.E-03
  OSSO-CUT-1        3427        964   437.E-03
  OSSO-CUT-1        3427        979   437.E-03
  OSSO-CUT-1        3428        965   353.E-03
  OSSO-CUT-1        3428        977   353.E-03
  OSSO-CUT-1        3429        965   336.E-03
  OSSO-CUT-1        3429        974   336.E-03
  OSSO-CUT-1        3430        966   434.E-03
  OSSO-CUT-1        3430       1113   434.E-03
  OSSO-CUT-1        3431        966   434.E-03
  OSSO-CUT-1        3431        980   434.E-03
  OSSO-CUT-1        3432        967   469.E-03
  OSSO-CUT-1        3432       1063   469.E-03
  OSSO-CUT-1        3433        967   463.E-03
  OSSO-CUT-1        3433       1060   463.E-03
  OSSO-CUT-1        3434        967   460.E-03
  OSSO-CUT-1        3434       1061   460.E-03
  OSSO-CUT-1        3435        967   466.E-03
  OSSO-CUT-1        3435        983   466.E-03
  OSSO-CUT-1        3436        969   550.E-03
  OSSO-CUT-1        3436        991   550.E-03
  OSSO-CUT-1        3437        969   553.E-03
  OSSO-CUT-1        3437        987   553.E-03
  OSSO-CUT-1        3438        973   415.E-03
  OSSO-CUT-1        3438       1030   415.E-03
  OSSO-CUT-1        3439        973   378.E-03
  OSSO-CUT-1        3439        997   378.E-03
  OSSO-CUT-1        3440        975   399.E-03
  OSSO-CUT-1        3440       1114   399.E-03
  OSSO-CUT-1        3441        976   471.E-03
  OSSO-CUT-1        3441        994   471.E-03
  OSSO-CUT-1        3442        976   501.E-03
  OSSO-CUT-1        3442       1050   501.E-03
  OSSO-CUT-1        3443        976   496.E-03
  OSSO-CUT-1        3443       1040   496.E-03
  OSSO-CUT-1        3444        977   369.E-03
  OSSO-CUT-1        3444        981   369.E-03
  OSSO-CUT-1        3445        978   462.E-03
  OSSO-CUT-1        3445       1124   462.E-03
  OSSO-CUT-1        3446        978   470.E-03
  OSSO-CUT-1        3446       1052   470.E-03
  OSSO-CUT-1        3447        978   476.E-03
  OSSO-CUT-1        3447       1034   476.E-03
  OSSO-CUT-1        3448        979   437.E-03
  OSSO-CUT-1        3448        998   437.E-03
  OSSO-CUT-1        3449        979   452.E-03
  OSSO-CUT-1        3449       1124   452.E-03
  OSSO-CUT-1        3450        980   429.E-03
  OSSO-CUT-1        3450        989   429.E-03
  OSSO-CUT-1        3451        980   429.E-03
  OSSO-CUT-1        3451       1105   429.E-03
  OSSO-CUT-1        3452        981   391.E-03
  OSSO-CUT-1        3452       1005   391.E-03
  OSSO-CUT-1        3453        982   457.E-03
  OSSO-CUT-1        3453        990   457.E-03
  OSSO-CUT-1        3454        983   463.E-03
  OSSO-CUT-1        3454        990   463.E-03
  OSSO-CUT-1        3455        983   469.E-03
  OSSO-CUT-1        3455       1119   469.E-03
  OSSO-CUT-1        3456        985   509.E-03
  OSSO-CUT-1        3456       1059   509.E-03
  OSSO-CUT-1        3457        986   408.E-03
  OSSO-CUT-1        3457       1038   408.E-03
  OSSO-CUT-1        3458        986   420.E-03
  OSSO-CUT-1        3458       1021   420.E-03
  OSSO-CUT-1        3459        986   417.E-03
  OSSO-CUT-1        3459       1018   417.E-03
  OSSO-CUT-1        3460        987   550.E-03
  OSSO-CUT-1        3460        988   550.E-03
  OSSO-CUT-1        3461        987   540.E-03
  OSSO-CUT-1        3461       1066   540.E-03
  OSSO-CUT-1        3462        988   561.E-03
  OSSO-CUT-1        3462       1125   561.E-03
  OSSO-CUT-1        3463        988   546.E-03
  OSSO-CUT-1        3463       1023   546.E-03
  OSSO-CUT-1        3464        989   431.E-03
  OSSO-CUT-1        3464       1113   431.E-03
  OSSO-CUT-1        3465        989   426.E-03
  OSSO-CUT-1        3465       1008   426.E-03
  OSSO-CUT-1        3466        990   465.E-03
  OSSO-CUT-1        3466       1071   465.E-03
  OSSO-CUT-1        3467        991   547.E-03
  OSSO-CUT-1        3467       1127   547.E-03
  OSSO-CUT-1        3468        991   538.E-03
  OSSO-CUT-1        3468       1019   538.E-03
  OSSO-CUT-1        3469        991   543.E-03
  OSSO-CUT-1        3469       1051   543.E-03
  OSSO-CUT-1        3470        992   420.E-03
  OSSO-CUT-1        3470       1114   420.E-03
  OSSO-CUT-1        3471        992   461.E-03
  OSSO-CUT-1        3471        993   461.E-03
  OSSO-CUT-1        3472        993   493.E-03
  OSSO-CUT-1        3472       1022   493.E-03
  OSSO-CUT-1        3473        993   483.E-03
  OSSO-CUT-1        3473       1036   483.E-03
  OSSO-CUT-1        3474        994   445.E-03
  OSSO-CUT-1        3474       1035   445.E-03
  OSSO-CUT-1        3475        994   450.E-03
  OSSO-CUT-1        3475       1102   450.E-03
  OSSO-CUT-1        3476        995   275.E-03
  OSSO-CUT-1        3476        996   275.E-03
  OSSO-CUT-1        3477        996   234.E-03
  OSSO-CUT-1        3477       1042   234.E-03
  OSSO-CUT-1        3478        997   332.E-03
  OSSO-CUT-1        3478       1015   332.E-03
  OSSO-CUT-1        3479        998   439.E-03
  OSSO-CUT-1        3479       1024   439.E-03
  OSSO-CUT-1        3480        998   422.E-03
  OSSO-CUT-1        3480       1039   422.E-03
  OSSO-CUT-1        3481        999   452.E-03
  OSSO-CUT-1        3481       1056   452.E-03
  OSSO-CUT-1        3482        999   457.E-03
  OSSO-CUT-1        3482       1052   457.E-03
  OSSO-CUT-1        3483        999   449.E-03
  OSSO-CUT-1        3483       1024   449.E-03
  OSSO-CUT-1        3484        999   444.E-03
  OSSO-CUT-1        3484       1004   444.E-03
  OSSO-CUT-1        3485       1000   413.E-03
  OSSO-CUT-1        3485       1001   413.E-03
  OSSO-CUT-1        3486       1000   424.E-03
  OSSO-CUT-1        3486       1017   424.E-03
  OSSO-CUT-1        3487       1001   405.E-03
  OSSO-CUT-1        3487       1075   405.E-03
  OSSO-CUT-1        3488       1002   447.E-03
  OSSO-CUT-1        3488       1026   447.E-03
  OSSO-CUT-1        3489       1003   486.E-03
  OSSO-CUT-1        3489       1053   486.E-03
  OSSO-CUT-1        3490       1003   480.E-03
  OSSO-CUT-1        3490       1064   480.E-03
  OSSO-CUT-1        3491       1004   439.E-03
  OSSO-CUT-1        3491       1024   439.E-03
  OSSO-CUT-1        3492       1004   435.E-03
  OSSO-CUT-1        3492       1017   435.E-03
  OSSO-CUT-1        3493       1005   405.E-03
  OSSO-CUT-1        3493       1039   405.E-03
  OSSO-CUT-1        3494       1005   393.E-03
  OSSO-CUT-1        3494       1117   393.E-03
  OSSO-CUT-1        3495       1006   249.E-03
  OSSO-CUT-1        3495       1078   249.E-03
  OSSO-CUT-1        3496       1006   214.E-03
  OSSO-CUT-1        3496       1032   214.E-03
  OSSO-CUT-1        3497       1007   532.E-03
  OSSO-CUT-1        3497       1019   532.E-03
  OSSO-CUT-1        3498       1007   527.E-03
  OSSO-CUT-1        3498       1049   527.E-03
  OSSO-CUT-1        3499       1007   534.E-03
  OSSO-CUT-1        3499       1051   534.E-03
  OSSO-CUT-1        3500       1008   426.E-03
  OSSO-CUT-1        3500       1009   426.E-03
  OSSO-CUT-1        3501       1008   419.E-03
  OSSO-CUT-1        3501       1011   419.E-03
  OSSO-CUT-1        3502       1009   432.E-03
  OSSO-CUT-1        3502       1113   432.E-03
  OSSO-CUT-1        3503       1009   431.E-03
  OSSO-CUT-1        3503       1029   431.E-03
  OSSO-CUT-1        3504       1010   407.E-03
  OSSO-CUT-1        3504       1011   407.E-03
  OSSO-CUT-1        3505       1011   414.E-03
  OSSO-CUT-1        3505       1045   414.E-03
  OSSO-CUT-1        3506       1013   600.E-03
  OSSO-CUT-1        3506       1014   600.E-03
  OSSO-CUT-1        3507       1014   594.E-03
  OSSO-CUT-1        3507       1126   594.E-03
  OSSO-CUT-1        3508       1016   425.E-03
  OSSO-CUT-1        3508       1116   425.E-03
  OSSO-CUT-1        3509       1016   411.E-03
  OSSO-CUT-1        3509       1075   411.E-03
  OSSO-CUT-1        3510       1016   417.E-03
  OSSO-CUT-1        3510       1045   417.E-03
  OSSO-CUT-1        3511       1017   440.E-03
  OSSO-CUT-1        3511       1056   440.E-03
  OSSO-CUT-1        3512       1018   424.E-03
  OSSO-CUT-1        3512       1105   424.E-03
  OSSO-CUT-1        3513       1019   530.E-03
  OSSO-CUT-1        3513       1020   530.E-03
  OSSO-CUT-1        3514       1019   523.E-03
  OSSO-CUT-1        3514       1037   523.E-03
  OSSO-CUT-1        3515       1020   537.E-03
  OSSO-CUT-1        3515       1127   537.E-03
  OSSO-CUT-1        3516       1022   515.E-03
  OSSO-CUT-1        3516       1055   515.E-03
  OSSO-CUT-1        3517       1023   520.E-03
  OSSO-CUT-1        3517       1050   520.E-03
  OSSO-CUT-1        3518       1024   450.E-03
  OSSO-CUT-1        3518       1124   450.E-03
  OSSO-CUT-1        3519       1025   491.E-03
  OSSO-CUT-1        3519       1108   491.E-03
  OSSO-CUT-1        3520       1025   479.E-03
  OSSO-CUT-1        3520       1068   479.E-03
  OSSO-CUT-1        3521       1025   495.E-03
  OSSO-CUT-1        3521       1040   495.E-03
  OSSO-CUT-1        3522       1025   507.E-03
  OSSO-CUT-1        3522       1067   507.E-03
  OSSO-CUT-1        3523       1026   475.E-03
  OSSO-CUT-1        3523       1046   475.E-03
  OSSO-CUT-1        3524       1026   470.E-03
  OSSO-CUT-1        3524       1027   470.E-03
  OSSO-CUT-1        3525       1026   452.E-03
  OSSO-CUT-1        3525       1030   452.E-03
  OSSO-CUT-1        3526       1027   484.E-03
  OSSO-CUT-1        3526       1048   484.E-03
  OSSO-CUT-1        3527       1028   444.E-03
  OSSO-CUT-1        3527       1043   444.E-03
  OSSO-CUT-1        3528       1029   424.E-03
  OSSO-CUT-1        3528       1045   424.E-03
  OSSO-CUT-1        3529       1029   438.E-03
  OSSO-CUT-1        3529       1043   438.E-03
  OSSO-CUT-1        3530       1029   431.E-03
  OSSO-CUT-1        3530       1116   431.E-03
  OSSO-CUT-1        3531       1031   141.E-03
  OSSO-CUT-1        3531       1033   141.E-03
  OSSO-CUT-1        3532       1032   183.E-03
  OSSO-CUT-1        3532       1033   183.E-03
  OSSO-CUT-1        3533       1034   491.E-03
  OSSO-CUT-1        3533       1062   491.E-03
  OSSO-CUT-1        3534       1036   507.E-03
  OSSO-CUT-1        3534       1041   507.E-03
  OSSO-CUT-1        3535       1043   442.E-03
  OSSO-CUT-1        3535       1044   442.E-03
  OSSO-CUT-1        3536       1044   437.E-03
  OSSO-CUT-1        3536       1116   437.E-03
  OSSO-CUT-1        3537       1044   445.E-03
  OSSO-CUT-1        3537       1056   445.E-03
  OSSO-CUT-1        3538       1046   485.E-03
  OSSO-CUT-1        3538       1108   485.E-03
  OSSO-CUT-1        3539       1046   502.E-03
  OSSO-CUT-1        3539       1047   502.E-03
  OSSO-CUT-1        3540       1046   491.E-03
  OSSO-CUT-1        3540       1048   491.E-03
  OSSO-CUT-1        3541       1047   517.E-03
  OSSO-CUT-1        3541       1049   517.E-03
  OSSO-CUT-1        3542       1047   508.E-03
  OSSO-CUT-1        3542       1057   508.E-03
  OSSO-CUT-1        3543       1047   510.E-03
  OSSO-CUT-1        3543       1065   510.E-03
  OSSO-CUT-1        3544       1048   501.E-03
  OSSO-CUT-1        3544       1057   501.E-03
  OSSO-CUT-1        3545       1048   494.E-03
  OSSO-CUT-1        3545       1070   494.E-03
  OSSO-CUT-1        3546       1050   517.E-03
  OSSO-CUT-1        3546       1055   517.E-03
  OSSO-CUT-1        3547       1051   540.E-03
  OSSO-CUT-1        3547       1066   540.E-03
  OSSO-CUT-1        3548       1052   459.E-03
  OSSO-CUT-1        3548       1124   459.E-03
  OSSO-CUT-1        3549       1052   468.E-03
  OSSO-CUT-1        3549       1069   468.E-03
  OSSO-CUT-1        3550       1053   488.E-03
  OSSO-CUT-1        3550       1120   488.E-03
  OSSO-CUT-1        3551       1053   492.E-03
  OSSO-CUT-1        3551       1070   492.E-03
  OSSO-CUT-1        3552       1053   494.E-03
  OSSO-CUT-1        3552       1058   494.E-03
  OSSO-CUT-1        3553       1054   528.E-03
  OSSO-CUT-1        3553       1055   528.E-03
  OSSO-CUT-1        3554       1056   456.E-03
  OSSO-CUT-1        3554       1060   456.E-03
  OSSO-CUT-1        3555       1058   496.E-03
  OSSO-CUT-1        3555       1062   496.E-03
  OSSO-CUT-1        3556       1058   491.E-03
  OSSO-CUT-1        3556       1120   491.E-03
  OSSO-CUT-1        3557       1059   503.E-03
  OSSO-CUT-1        3557       1062   503.E-03
  OSSO-CUT-1        3558       1060   464.E-03
  OSSO-CUT-1        3558       1069   464.E-03
  OSSO-CUT-1        3559       1063   472.E-03
  OSSO-CUT-1        3559       1069   472.E-03
  OSSO-CUT-1        3560       1063   475.E-03
  OSSO-CUT-1        3560       1119   475.E-03
  OSSO-CUT-1        3561       1064   483.E-03
  OSSO-CUT-1        3561       1120   483.E-03
  OSSO-CUT-1        3562       1064   478.E-03
  OSSO-CUT-1        3562       1119   478.E-03
  OSSO-CUT-1        3563       1064   475.E-03
  OSSO-CUT-1        3563       1071   475.E-03
  OSSO-CUT-1        3564       1065   503.E-03
  OSSO-CUT-1        3564       1108   503.E-03
  OSSO-CUT-1        3565       1065   514.E-03
  OSSO-CUT-1        3565       1067   514.E-03
  OSSO-CUT-1        3566       1066   529.E-03
  OSSO-CUT-1        3566       1067   529.E-03
  OSSO-CUT-1        3567       1071   471.E-03
  OSSO-CUT-1        3567       1119   471.E-03
  OSSO-CUT-1        3568       1073   258.E-03
  OSSO-CUT-1        3568       1107   258.E-03
  OSSO-CUT-1        3569       1076   134.E-03
  OSSO-CUT-1        3570       1081   438.E-03
  OSSO-CUT-1        3570       1101   438.E-03
  OSSO-CUT-1        3571       1083   610.E-03
  OSSO-CUT-1        3571       1084   610.E-03
  OSSO-CUT-1        3572       1084   576.E-03
  OSSO-CUT-1        3572       1097   576.E-03
  OSSO-CUT-1        3573       1085   343.E-03
  OSSO-CUT-1        3573       1092   343.E-03
  OSSO-CUT-1        3574       1085   340.E-03
  OSSO-CUT-1        3574       1086   340.E-03
  OSSO-CUT-1        3575       1086   332.E-03
  OSSO-CUT-1        3575       1091   332.E-03
  OSSO-CUT-1        3576       1097   546.E-03
  OSSO-CUT-1        3576       1098   546.E-03
  OSSO-CUT-1        3577       1100   142.E-03
  OSSO-CUT-1        3577       1110   142.E-03
  OSSO-CUT-1        3578       1104   386.E-03
  OSSO-CUT-1        3578       1117   386.E-03
  OSSO-CUT-1        3579       1112   400.E-03
  OSSO-CUT-1        3579       1114   400.E-03
  OSSO-CUT-1        3580       1118   605.E-03
  OSSO-CUT-1        3580       1123   605.E-03
  OSSO-CUT-1        3581       1118   598.E-03
  OSSO-CUT-1        3581       1122   598.E-03
  OSSO-CUT-1        3582       1122   591.E-03
  OSSO-CUT-1        3582       1123   591.E-03


