********************************************************************************
Probe Values Report, written on Fri Oct 25 14:48:33 2024

Source
-------

   ODB: C:/temp/boneimp-alumina.odb
   Step: Step-1
   Frame: Increment      1: Step Time =    1.000
   Variable: S, Mises (Avg: 75)

Probe values reported at nodes

  Part Instance     Node ID                     Orig. Coords                                       Def. Coords                   
                                    X                Y                Z                X                Y                Z       
-------------------------------------------------------------------------------------------------------------------------------
  IMP-OSSO-1        2874           8.9937         -31.6131               0.          8.99439         -31.6132               0.
  IMP-OSSO-1        3175          8.35238         -10.5505               0.          8.35699          -10.551               0.
  IMPLANTE-2-COPY4-1        1288          11.4841          12.6487               0.          11.4935           12.647               0.
  IMPLANTE-2-COPY4-1        2197         -6.26117          31.4073               0.         -6.24919          31.4079               0.


  Part Instance     Node ID  Attached elements         S, Mises
----------------------------------------------------------------
  IMP-OSSO-1        2874              725      540.885E-03
  IMP-OSSO-1        2874              786      540.885E-03
  IMP-OSSO-1        3175              915       258.06E-03
  IMP-OSSO-1        3175              945       258.06E-03
  IMPLANTE-2-COPY4-1        1288              222      883.914E-03
  IMPLANTE-2-COPY4-1        1288              247      883.914E-03
  IMPLANTE-2-COPY4-1        2197              668      845.374E-03
  IMPLANTE-2-COPY4-1        2197              698      845.374E-03


