********************************************************************************
Probe Values Report, written on Wed Oct 23 16:19:33 2024

Source
-------

   ODB: C:/temp/quad-quad-2.odb
   Step: step-1
   Frame: Increment      1: Step Time =    1.000
   Variable: S, Mises (Avg: 75)

Probe values reported at nodes

  Part Instance     Node ID                     Orig. Coords                                       Def. Coords                   
                                    X                Y                Z                X                Y                Z       
-------------------------------------------------------------------------------------------------------------------------------
      OSSO-4          13          25.2539         -15.0587               0.          25.2559         -15.0603               0.
      OSSO-4          17          28.9005          7.19905               0.          28.9044          7.19728               0.
      OSSO-4          30          14.2395          43.8071               0.          14.2449           43.806               0.
      OSSO-4          54         -3.61857         -24.8145               0.         -3.61748          -24.814               0.


  Part Instance     Node ID  Attached elements         S, Mises
----------------------------------------------------------------
      OSSO-4          13               59       215.36E-03
      OSSO-4          13              372       215.36E-03
      OSSO-4          17              373      178.555E-03
      OSSO-4          17              441      178.555E-03
      OSSO-4          30              128      106.641E-03
      OSSO-4          30              377      106.641E-03
      OSSO-4          54              209      89.5436E-03
      OSSO-4          54              397      89.5436E-03


