********************************************************************************
Probe Values Report, written on Wed Oct 23 16:04:30 2024

Source
-------

   ODB: C:/temp/quad-quad-3.odb
   Step: step-1
   Frame: Increment      1: Step Time =    1.000
   Variable: S, Mises (Avg: 75)

Probe values reported at nodes

  Part Instance     Node ID                     Orig. Coords                                       Def. Coords                   
                                    X                Y                Z                X                Y                Z       
-------------------------------------------------------------------------------------------------------------------------------
      OSSO-4           3          25.2539         -15.0587               0.          25.2559         -15.0603               0.
      OSSO-4           4          28.9005          7.19905               0.          28.9044          7.19728               0.
      OSSO-4          12          14.2395          43.8071               0.          14.2449           43.806               0.
      OSSO-4          34         -3.61857         -24.8145               0.         -3.61748          -24.814               0.


  Part Instance     Node ID  Attached elements         S, Mises
----------------------------------------------------------------
      OSSO-4           3               43      215.024E-03
      OSSO-4           3               65      215.024E-03
      OSSO-4           4               50      178.571E-03
      OSSO-4           4               85      178.571E-03
      OSSO-4          12               57      106.985E-03
      OSSO-4          12               90      106.985E-03
      OSSO-4          34               32       89.571E-03
      OSSO-4          34               66       89.571E-03


