********************************************************************************
Probe Values Report, written on Wed Oct 23 16:45:14 2024

Source
-------

   ODB: C:/temp/quad-quad-05.odb
   Step: step-1
   Frame: Increment      1: Step Time =    1.000
   Variable: S, Mises (Avg: 75)

Probe values reported at nodes

  Part Instance     Node ID                     Orig. Coords                                       Def. Coords                   
                                    X                Y                Z                X                Y                Z       
-------------------------------------------------------------------------------------------------------------------------------
      OSSO-4          51          25.2539         -15.0587               0.          25.2559         -15.0603               0.
      OSSO-4          67          28.9005          7.19905               0.          28.9044          7.19728               0.
      OSSO-4         115          14.2395          43.8071               0.          14.2449           43.806               0.
      OSSO-4         211         -3.61857         -24.8145               0.         -3.61748          -24.814               0.


  Part Instance     Node ID  Attached elements         S, Mises
----------------------------------------------------------------
      OSSO-4          51              525      215.015E-03
      OSSO-4          51              526      215.015E-03
      OSSO-4          67             5347       178.91E-03
      OSSO-4          67             5987       178.91E-03
      OSSO-4         115              774      105.857E-03
      OSSO-4         115             5372      105.857E-03
      OSSO-4         211             1232      89.4067E-03
      OSSO-4         211             1233      89.4067E-03


