********************************************************************************
Probe Values Report, written on Wed Oct 23 16:29:56 2024

Source
-------

   ODB: C:/temp/quad-lin-1.odb
   Step: step-1
   Frame: Increment      1: Step Time =    1.000
   Variable: S, Mises (Avg: 75)

Probe values reported at nodes

  Part Instance     Node ID                     Orig. Coords                                       Def. Coords                   
                                    X                Y                Z                X                Y                Z       
-------------------------------------------------------------------------------------------------------------------------------
      OSSO-4          25          25.2539         -15.0587               0.          25.2559         -15.0603               0.
      OSSO-4          33          28.9005          7.19905               0.          28.9044          7.19727               0.
      OSSO-4          58          14.2395          43.8071               0.          14.2449           43.806               0.
      OSSO-4         100         -3.61857         -24.8145               0.         -3.61748          -24.814               0.


  Part Instance     Node ID  Attached elements         S, Mises
----------------------------------------------------------------
      OSSO-4          25              133      219.119E-03
      OSSO-4          25             1393      219.119E-03
      OSSO-4          33             1078      170.647E-03
      OSSO-4          33             1405      170.647E-03
      OSSO-4          58              231      101.557E-03
      OSSO-4          58             1592      101.557E-03
      OSSO-4         100             1451      84.1454E-03
      OSSO-4         100             1452      84.1454E-03


