********************************************************************************
Probe Values Report, written on Wed Oct 23 17:09:34 2024

Source
-------

   ODB: C:/temp/tri-lin-025.odb
   Step: step-1
   Frame: Increment      1: Step Time =    1.000
   Variable: S, Mises (Avg: 75)

Probe values reported at nodes

  Part Instance     Node ID                     Orig. Coords                                       Def. Coords                   
                                    X                Y                Z                X                Y                Z       
-------------------------------------------------------------------------------------------------------------------------------
      OSSO-4         103          25.2539         -15.0587               0.          25.2559         -15.0603               0.
      OSSO-4         136          28.9005          7.19905               0.          28.9044          7.19728               0.
      OSSO-4         230          14.2395          43.8071               0.          14.2449           43.806               0.
      OSSO-4         403         -3.61857         -24.8145               0.         -3.61748          -24.814               0.


  Part Instance     Node ID  Attached elements         S, Mises
----------------------------------------------------------------
      OSSO-4         103             1401      215.913E-03
      OSSO-4         103            23557      215.913E-03
      OSSO-4         103            30125      215.913E-03
      OSSO-4         136             1187      177.464E-03
      OSSO-4         136            23607      177.464E-03
      OSSO-4         136            23920      177.464E-03
      OSSO-4         230             2075      105.029E-03
      OSSO-4         230             2215      105.029E-03
      OSSO-4         230            23687      105.029E-03
      OSSO-4         403            23875      87.9235E-03
      OSSO-4         403            24049      87.9235E-03
      OSSO-4         403            24616      87.9235E-03


