********************************************************************************
Probe Values Report, written on Wed Oct 23 16:48:18 2024

Source
-------

   ODB: C:/temp/tri-lin-05.odb
   Step: step-1
   Frame: Increment      1: Step Time =    1.000
   Variable: S, Mises (Avg: 75)

Probe values reported at nodes

  Part Instance     Node ID                     Orig. Coords                                       Def. Coords                   
                                    X                Y                Z                X                Y                Z       
-------------------------------------------------------------------------------------------------------------------------------
      OSSO-4          51          25.2539         -15.0587               0.          25.2559         -15.0603               0.
      OSSO-4          67          28.9005          7.19905               0.          28.9044          7.19728               0.
      OSSO-4         114          14.2395          43.8071               0.          14.2449           43.806               0.
      OSSO-4         210         -3.61857         -24.8145               0.         -3.61748          -24.814               0.


  Part Instance     Node ID  Attached elements         S, Mises
----------------------------------------------------------------
      OSSO-4          51              561       214.77E-03
      OSSO-4          51             5991       214.77E-03
      OSSO-4          67             6015      176.611E-03
      OSSO-4          67             7349      176.611E-03
      OSSO-4          67             7350      176.611E-03
      OSSO-4         114             6059      104.707E-03
      OSSO-4         114             6370      104.707E-03
      OSSO-4         114             6462      104.707E-03
      OSSO-4         210             1316      86.0747E-03
      OSSO-4         210             6143      86.0747E-03
      OSSO-4         210             6180      86.0747E-03


