********************************************************************************
Probe Values Report, written on Wed Oct 23 16:12:15 2024

Source
-------

   ODB: C:/temp/tri-quad-3.odb
   Step: step-1
   Frame: Increment      1: Step Time =    1.000
   Variable: S, Mises (Avg: 75)

Probe values reported at nodes

  Part Instance     Node ID                     Orig. Coords                                       Def. Coords                   
                                    X                Y                Z                X                Y                Z       
-------------------------------------------------------------------------------------------------------------------------------
      OSSO-4           3          25.2539         -15.0587               0.          25.2559         -15.0603               0.
      OSSO-4           4          28.9005          7.19905               0.          28.9044          7.19728               0.
      OSSO-4          12          14.2395          43.8071               0.          14.2449           43.806               0.
      OSSO-4          34         -3.61857         -24.8145               0.         -3.61748          -24.814               0.


  Part Instance     Node ID  Attached elements         S, Mises
----------------------------------------------------------------
      OSSO-4           3               48      215.419E-03
      OSSO-4           3              104      215.419E-03
      OSSO-4           3              375      215.419E-03
      OSSO-4           4              113      181.088E-03
      OSSO-4           4              115      181.088E-03
      OSSO-4           4              144      181.088E-03
      OSSO-4          12               63       108.26E-03
      OSSO-4          12              118       108.26E-03
      OSSO-4          12              175       108.26E-03
      OSSO-4          34               75      93.7627E-03
      OSSO-4          34              178      93.7627E-03
      OSSO-4          34              309      93.7627E-03


