********************************************************************************
Probe Values Report, written on Wed Oct 23 13:19:03 2024

Source
-------

   ODB: C:/temp/quadlin-10.odb
   Step: step-1
   Frame: Increment      1: Step Time =    1.000
   Variable: S, Mises (Avg: 75)

Probe values reported at nodes

  Part Instance     Node ID                     Orig. Coords                                       Def. Coords                   
                                    X                Y                Z                X                Y                Z       
-------------------------------------------------------------------------------------------------------------------------------
      OSSO-4           3          25.2539         -15.0587               0.           25.256         -15.0604               0.
      OSSO-4           4          28.9005          7.19905               0.          28.9046          7.19705               0.
      OSSO-4          10          14.2395          43.8071               0.          14.2455          43.8059               0.
      OSSO-4          24         -3.61857         -24.8145               0.         -3.61748          -24.814               0.


  Part Instance     Node ID  Attached elements         S, Mises
----------------------------------------------------------------
      OSSO-4           3               22      291.779E-03
      OSSO-4           3               38      291.779E-03
      OSSO-4           4               52      121.246E-03
      OSSO-4           4               58      121.246E-03
      OSSO-4          10               10      152.956E-03
      OSSO-4          10               11      152.956E-03
      OSSO-4          24                4      296.456E-03
      OSSO-4          24               28      296.456E-03


