********************************************************************************
Probe Values Report, written on Wed Oct 23 16:50:44 2024

Source
-------

   ODB: C:/temp/tri-quad-05.odb
   Step: step-1
   Frame: Increment      1: Step Time =    1.000
   Variable: S, Mises (Avg: 75)

Probe values reported at nodes

  Part Instance     Node ID                     Orig. Coords                                       Def. Coords                   
                                    X                Y                Z                X                Y                Z       
-------------------------------------------------------------------------------------------------------------------------------
      OSSO-4          51          25.2539         -15.0587               0.          25.2559         -15.0603               0.
      OSSO-4          67          28.9005          7.19905               0.          28.9044          7.19728               0.
      OSSO-4         114          14.2395          43.8071               0.          14.2449           43.806               0.
      OSSO-4         210         -3.61857         -24.8145               0.         -3.61748          -24.814               0.


  Part Instance     Node ID  Attached elements         S, Mises
----------------------------------------------------------------
      OSSO-4          51              561      214.805E-03
      OSSO-4          51             5991      214.805E-03
      OSSO-4          67             6015      179.451E-03
      OSSO-4          67             7349      179.451E-03
      OSSO-4          67             7350      179.451E-03
      OSSO-4         114             6059      106.058E-03
      OSSO-4         114             6370      106.058E-03
      OSSO-4         114             6462      106.058E-03
      OSSO-4         210             1316      90.2532E-03
      OSSO-4         210             6143      90.2532E-03
      OSSO-4         210             6180      90.2532E-03


