********************************************************************************
Probe Values Report, written on Wed Oct 23 16:08:52 2024

Source
-------

   ODB: C:/temp/tri-lin-3.odb
   Step: step-1
   Frame: Increment      1: Step Time =    1.000
   Variable: S, Mises (Avg: 75)

Probe values reported at nodes

  Part Instance     Node ID                     Orig. Coords                                       Def. Coords                   
                                    X                Y                Z                X                Y                Z       
-------------------------------------------------------------------------------------------------------------------------------
      OSSO-4           3          25.2539         -15.0587               0.          25.2559         -15.0602               0.
      OSSO-4           4          28.9005          7.19905               0.          28.9042          7.19732               0.
      OSSO-4          12          14.2395          43.8071               0.          14.2447           43.806               0.
      OSSO-4          34         -3.61857         -24.8145               0.         -3.61753          -24.814               0.


  Part Instance     Node ID  Attached elements         S, Mises
----------------------------------------------------------------
      OSSO-4           3               48      231.687E-03
      OSSO-4           3              104      231.687E-03
      OSSO-4           3              375      231.687E-03
      OSSO-4           4              113      158.674E-03
      OSSO-4           4              115      158.674E-03
      OSSO-4           4              144      158.674E-03
      OSSO-4          12               63      98.6032E-03
      OSSO-4          12              118      98.6032E-03
      OSSO-4          12              175      98.6032E-03
      OSSO-4          34               75      123.298E-03
      OSSO-4          34              178      123.298E-03
      OSSO-4          34              309      123.298E-03


