********************************************************************************
Probe Values Report, written on Wed Oct 23 16:22:36 2024

Source
-------

   ODB: C:/temp/tri-lin-2.odb
   Step: step-1
   Frame: Increment      1: Step Time =    1.000
   Variable: S, Mises (Avg: 75)

Probe values reported at nodes

  Part Instance     Node ID                     Orig. Coords                                       Def. Coords                   
                                    X                Y                Z                X                Y                Z       
-------------------------------------------------------------------------------------------------------------------------------
      OSSO-4          13          25.2539         -15.0587               0.          25.2559         -15.0602               0.
      OSSO-4          17          28.9005          7.19905               0.          28.9043          7.19729               0.
      OSSO-4          30          14.2395          43.8071               0.          14.2449           43.806               0.
      OSSO-4          54         -3.61857         -24.8145               0.          -3.6175          -24.814               0.


  Part Instance     Node ID  Attached elements         S, Mises
----------------------------------------------------------------
      OSSO-4          13               67      223.152E-03
      OSSO-4          13              428      223.152E-03
      OSSO-4          13              623      223.152E-03
      OSSO-4          17              433      163.712E-03
      OSSO-4          17              543      163.712E-03
      OSSO-4          17              630      163.712E-03
      OSSO-4          30              440      100.435E-03
      OSSO-4          30              618      100.435E-03
      OSSO-4          30              635      100.435E-03
      OSSO-4          54              228       98.933E-03
      OSSO-4          54              496       98.933E-03
      OSSO-4          54              499       98.933E-03


