********************************************************************************
Probe Values Report, written on Wed Oct 23 16:14:52 2024

Source
-------

   ODB: C:/temp/quad-lin-2.odb
   Step: step-1
   Frame: Increment      1: Step Time =    1.000
   Variable: S, Mises (Avg: 75)

Probe values reported at nodes

  Part Instance     Node ID                     Orig. Coords                                       Def. Coords                   
                                    X                Y                Z                X                Y                Z       
-------------------------------------------------------------------------------------------------------------------------------
      OSSO-4          13          25.2539         -15.0587               0.          25.2559         -15.0603               0.
      OSSO-4          17          28.9005          7.19905               0.          28.9044          7.19727               0.
      OSSO-4          30          14.2395          43.8071               0.           14.245           43.806               0.
      OSSO-4          54         -3.61857         -24.8145               0.         -3.61748          -24.814               0.


  Part Instance     Node ID  Attached elements         S, Mises
----------------------------------------------------------------
      OSSO-4          13               59      223.038E-03
      OSSO-4          13              372      223.038E-03
      OSSO-4          17              373      153.708E-03
      OSSO-4          17              441      153.708E-03
      OSSO-4          30              128      97.6906E-03
      OSSO-4          30              377      97.6906E-03
      OSSO-4          54              209      95.0774E-03
      OSSO-4          54              397      95.0774E-03


