********************************************************************************
Probe Values Report, written on Wed Oct 23 15:58:56 2024

Source
-------

   ODB: C:/temp/tri-quad-5.odb
   Step: step-1
   Frame: Increment      1: Step Time =    1.000
   Variable: S, Mises (Avg: 75)

Probe values reported at nodes

  Part Instance     Node ID                     Orig. Coords                                       Def. Coords                   
                                    X                Y                Z                X                Y                Z       
-------------------------------------------------------------------------------------------------------------------------------
      OSSO-4           3          25.2539         -15.0587               0.          25.2559         -15.0602               0.
      OSSO-4           4          28.9005          7.19905               0.          28.9044          7.19728               0.
      OSSO-4          11          14.2395          43.8071               0.          14.2449           43.806               0.
      OSSO-4          31         -3.61857         -24.8145               0.         -3.61749          -24.814               0.


  Part Instance     Node ID  Attached elements         S, Mises
----------------------------------------------------------------
      OSSO-4           3               38      216.644E-03
      OSSO-4           3              130      216.644E-03
      OSSO-4           3              149      216.644E-03
      OSSO-4           4               97      182.008E-03
      OSSO-4           4              136      182.008E-03
      OSSO-4           4              138      182.008E-03
      OSSO-4          11               11      109.929E-03
      OSSO-4          11              147      109.929E-03
      OSSO-4          11              278      109.929E-03
      OSSO-4          31              125      95.7927E-03
      OSSO-4          31              244      95.7927E-03
      OSSO-4          31              416      95.7927E-03


