********************************************************************************
Probe Values Report, written on Wed Oct 23 15:56:09 2024

Source
-------

   ODB: C:/temp/tri-lin-5.odb
   Step: step-1
   Frame: Increment      1: Step Time =    1.000
   Variable: S, Mises (Avg: 75)

Probe values reported at nodes

  Part Instance     Node ID                     Orig. Coords                                       Def. Coords                   
                                    X                Y                Z                X                Y                Z       
-------------------------------------------------------------------------------------------------------------------------------
      OSSO-4           3          25.2539         -15.0587               0.          25.2558         -15.0602               0.
      OSSO-4           4          28.9005          7.19905               0.          28.9041          7.19738               0.
      OSSO-4          11          14.2395          43.8071               0.          14.2445           43.806               0.
      OSSO-4          31         -3.61857         -24.8145               0.         -3.61759         -24.8141               0.


  Part Instance     Node ID  Attached elements         S, Mises
----------------------------------------------------------------
      OSSO-4           3               38      243.885E-03
      OSSO-4           3              130      243.885E-03
      OSSO-4           3              149      243.885E-03
      OSSO-4           4               97      149.577E-03
      OSSO-4           4              136      149.577E-03
      OSSO-4           4              138      149.577E-03
      OSSO-4          11               11      95.6666E-03
      OSSO-4          11              147      95.6666E-03
      OSSO-4          11              278      95.6666E-03
      OSSO-4          31              125      168.858E-03
      OSSO-4          31              244      168.858E-03
      OSSO-4          31              416      168.858E-03


